"Zn97 O231 H270 Na5 Cl7"
1.0
       13.1280002594         0.0000000000         0.0000000000
        0.0000000000        10.5819997787         0.0000000000
        0.0000000000         0.0000000000        47.0537719727
   Zn    O    H   Na   Cl
   97  231  270    5    7
Cartesian
     1.578716388        10.066729819         1.003446824
    13.093200591        10.092684620         3.814564381
    12.829609515         2.254979383         2.101761435
     1.433330567         2.242790719         4.883646841
     1.476615555        10.151307778         6.738512900
    12.742623254        10.143150465         9.373723690
    12.775566075         2.060456039         7.509695979
     1.322043108         2.105792579        10.369961668
     1.156267951        10.193865451        12.018409901
    12.838828809        10.150445561        14.738217247
    12.686460832         2.244593679        12.987910703
     1.273949036         2.086222880        15.974552721
     1.427315764         4.661815163         1.188151781
    12.867274661         4.738073709         3.916449336
    12.938629905         7.488388157         1.833621036
     1.383714357         7.394426734         4.898046479
     1.290778337         4.733032234         6.668923883
    12.752908300         4.564808230         9.498509096
    12.849490233         7.455405692         7.622089157
     1.331605818         7.329382049        10.361348670
     1.335805832         4.773856012        12.273678306
    12.600665521         4.832771832        15.025065711
    12.836168344         7.388885715        13.008235808
     1.387768730         7.246876060        15.964398582
     4.685795359        10.147619232         1.222778976
     3.172637922        10.127209865         4.009883260
     3.352869774         2.284914603         2.194947501
     4.664854759         2.224216007         4.920572863
     4.778327125        10.116262175         6.656879428
     2.913611500        10.186792373         9.487852229
     3.038080978         2.299314156         7.579195247
     4.666117306         2.125711390        10.412023306
     4.584736411        10.023295423        12.281738793
     3.029997858        10.069135448        15.062224166
     3.034920892         2.126607193        13.070210973
     4.585759125         2.057529107        15.933079353
     4.719124338         4.785234811         0.936314132
     3.222027895         4.948108910         3.933756316
     3.190021129         7.445773718         2.166605029
     4.908815905         7.542344497         4.750643187
     4.700482693         4.967566495         6.914904778
     2.807595088         4.830539972         9.540457147
     3.062399978         7.435212038         7.574063487
     4.609335934         7.383356681        10.455818201
     4.655291168         4.759783969        12.291528331
     3.034380975         4.923814838        14.868267633
     2.815557509         7.648822252        12.964239682
     4.674932836         7.641979393        15.780857017
     7.876067276        10.192243197         0.842479410
     6.389363667        10.048669315         3.690500464
     6.254282454         2.032805031         1.942869004
     7.914251995         2.158283403         4.688672229
     8.012030355        10.214365012         6.500860334
     6.220694080        10.010745031         9.455052158
     6.407911022         2.099042912         7.639547236
     7.756109243         2.226127453        10.374793333
     7.908276903        10.219067152        12.275492897
     6.352900816        10.181575553        15.021726807
     6.227218088         2.183614090        13.155935689
     7.897466024         2.156855101        15.917285116
     7.983487474         4.817997780         1.044414571
     6.393648581         4.767477376         3.860570371
     6.246255674         7.365302484         1.856902040
     7.987272377         7.459663793         4.670894073
     7.982999201         4.806082539         6.639259382
     6.319183722         4.728664700         9.420052562
     6.377476082         7.480109743         7.633558664
     7.940315165         7.435666799        10.332721178
     7.845823263         4.749842303        12.211863004
     6.224602225         4.941200455        15.040028377
     6.263615601         7.554603488        13.079867291
     7.939083526         7.565740400        15.714377627
    11.399817562        10.193631448         1.300377120
     9.605613853        10.034298618         3.889166310
     9.656925621         2.168086150         1.893424371
    11.206830539         2.234142693         4.873343707
    11.154485102        10.033424418         6.547919811
     9.631466533        10.217950749         9.446811474
     9.596449333         2.268245345         7.524021294
    11.026719387         2.232305201        10.376582683
    11.028921313        10.038686651        12.261744633
     9.460485471        10.122778943        15.113994709
     9.521752857         2.045085941        13.097637385
    11.238228725         2.056888122        15.869173205
    11.302121364         4.881971474         1.121421816
     9.633845302         4.843437899         3.866858687
     9.700750527         7.681530977         1.906673412
    11.283977773         7.374401486         4.800800020
    11.264525077         4.822890086         6.710700151
     9.479395902         4.791301549         9.443552502
     9.633997888         7.439291010         7.575812170
    11.183553816         7.403578718        10.386065114
    11.031816525         4.815657748        12.190989595
     9.737478250         4.824671285        15.051129076
     9.539919140         7.384616261        13.190094599
    11.315080177         7.635045709        16.000241668
    10.818740642         4.252939701        27.947471631
     1.535568043         1.646505831         1.302580239
    12.950879000         1.513347456         3.976711226
    12.852552898         4.138980467         2.032957539
     1.508664870         4.189814347         4.839154647
     1.407242553         1.590519308         6.744103916
    12.775551990         1.550699504         9.420267817
    12.931486556         4.021455365         7.540717918
     1.294915068         4.139896612        10.488964642
     1.256828648         1.493814497        12.300174985
    12.897734641         1.562357246        14.857241256
    12.668645104         4.247571504        13.044634210
     1.276639432         4.147895295        15.877427211
     1.490088269         6.642187240         1.221270439
    12.929749428         6.693343742         3.857429192
    12.961185173         9.496464697         1.996364215
     1.529318883         9.406296523         4.818445658
     1.370168969         6.755781593         6.752024173
    12.868154962         6.586671720         9.515101949
    12.815771965         9.465742161         7.529669104
     1.272402249         9.409100776        10.281073337
     1.377935865         6.759349669        12.185371934
    12.843730325         6.712202127        14.968806369
    12.753231468         9.356329590        12.966054273
     1.306435763         9.467632478        15.830599817
     4.735509674         1.516980970         1.046322416
     3.053522631         1.528376484         3.985148936
     3.087800379         4.203045934         2.180000260
     4.719572705         4.155967143         4.930729806
     4.729076435         1.502119403         6.781194359
     3.032011791         1.645390847         9.505081731
     3.053230567         4.346129734         7.601627326
     4.581186255         4.096980365        10.431020422
     4.575488947         1.503614248        12.293567292
     2.901531618         1.469594537        15.057746585
     2.945228196         4.095769982        13.176203299
     4.601996180         4.249231918        15.927765994
     4.656091655         6.790858733         1.085850690
     3.074429193         6.894175868         4.101398821
     3.008948296         9.421001510         2.033108462
     4.805218560         9.488372981         4.807575289
     4.773443215         6.865365725         6.762183220
     3.003422940         6.818085729         9.395829732
     3.128819276         9.482763842         7.539637437
     4.528049330         9.465932013        10.447710736
     4.679702894         6.610662407        12.180702236
     3.004708766         6.936633254        14.823573155
     2.795921710         9.549877342        13.052248763
     4.714308114         9.516300724        15.870931704
     7.903510758         1.646473032         1.029397478
     6.227403147         1.471924320         3.871871951
     6.292274289         4.221781326         1.908899231
     8.020568883         4.245512465         4.702008564
     7.966149848         1.633056009         6.652048465
     6.185970704         1.494098802         9.534791106
     6.431870468         4.194523740         7.666601334
     7.894008202         4.146249073        10.488410028
     7.857546525         1.564866158        12.216587392
     6.184282873         1.525395781        14.943554942
     6.322916590         4.156095813        13.254628983
     7.949003149         4.183338892        16.011962189
     8.073922950         6.779098654         0.875779404
     6.384502449         6.788416522         3.735268563
     6.321834798         9.347445669         1.936000832
     7.966152196         9.452844864         4.683930663
     7.913404559         6.845143056         6.721532307
     6.362499618         6.739636004         9.579529056
     6.424623048         9.479577362         7.533259022
     7.848957134         9.499579904        10.329357032
     7.863467625         6.714906094        12.170371406
     6.226248583         6.865556207        14.978904415
     6.265655552         9.515470045        13.167386966
     7.891637258         9.421098012        15.912149851
    11.238284282         1.465214547         1.209130276
     9.543830806         1.570012493         3.917561369
     9.692650193         4.158388224         1.922402791
    11.232551761         4.252601627         4.793749898
    11.141890929         1.525296598         6.699767028
     9.464336104         1.711984305         9.333436678
     9.591101015         4.277251749         7.637927566
    11.082205738         4.178556019        10.294715025
    11.171355582         1.484391612        12.041850943
     9.537019233         1.571252994        15.055824015
     9.502669496         4.010167077        13.197024823
    11.201419623         4.014642152        16.007762266
    11.328323034         6.841632378         1.110542331
     9.600200589         6.863469731         3.853371954
     9.561458737         9.598572711         1.907046602
    11.270679359         9.426603079         4.663797324
    11.183057717         6.754674651         6.658729779
     9.675344648         6.793203811         9.403591527
     9.492916543         9.429530326         7.554124719
    11.151046060         9.411395395        10.318078940
    11.101650609         6.788479596        12.302141026
     9.601907981         6.813636515        15.073523993
     9.427575516         9.477787333        13.217135375
    11.251151544         9.542685056        15.809239806
     2.073929725         2.688238639        40.865827674
     2.463212528         9.695921819        32.076368031
    12.434169691         0.848115990        26.317486233
     0.534024195         6.081813325        25.849475928
    13.042830940         4.019899339        44.493804319
     9.744462754         4.059558148        42.736646080
     2.893071534         4.789326398        38.008626036
     2.373828719         1.952711766        20.018755105
     1.287276500         9.975653384        35.526915788
     1.576200781         6.658766776        17.785791110
     3.578888038         1.223521901        26.218146474
     0.702137920         8.283743525        21.364026357
     2.099102421         9.300446350        19.262795521
     6.312787651         5.919603077        25.390384325
     4.780517314         3.137382201        32.382767524
     0.008004200        10.357136598        32.342092072
    12.485383648         6.664910778        44.031854805
     4.353870623         9.856541981        18.343134279
     1.125427583         5.179426100        40.514627127
    12.614244067         1.801760950        36.364550211
     3.867257436         5.590557391        42.196141870
     3.976238702         5.847352860        33.986453968
    10.339529809         8.613742885        22.673580730
     7.514900505         6.616748382        27.819275101
     9.760103160         7.534073651        38.418992917
     6.652926965         8.488399176        32.593021724
     7.274266114         5.452906754        40.851571774
    11.390823624         0.704026402        17.477585439
     8.130244217         7.137302020        44.910125416
    10.952088640         7.673436737        25.794816623
     7.336866080         4.086719231        23.522983353
     1.433653149        10.474863535        27.586376373
     2.901871023         4.875885499        20.072587046
    12.004925525         4.475758035        18.651683516
    10.716184400         3.799258307        23.949711005
     5.713348043         0.120187775        22.419399117
    10.572167154         1.608315534        45.355819333
     6.766430239         2.800592649        28.738162268
     7.264782338         0.215485511        24.690967350
     6.614095909         4.826419371        44.671544520
     8.935357354         3.018566297        33.561449758
     5.438790372         7.679747885        41.378002384
     2.972302342         3.968655480        27.776064269
     4.697218536         1.798289377        17.852573399
     6.766082813         9.960568063        30.235901260
     4.280280588         0.965097397        30.997440642
     1.823515972         1.217628774        38.158967872
     9.049235441         5.038879753        31.537008107
     9.660763734         0.097789027        33.421978642
    11.176181979         4.488892173        40.135781408
     7.476175867         3.995487635        18.611681173
     5.614825927         0.122381821        38.865660039
    12.277649040         2.014748469        33.810752729
    12.807946285         4.291529096        32.091078281
     4.501929820         7.147050681        45.321109314
     9.986746633         9.384538642        43.466863428
     6.749699825         0.344177642        35.248324135
     3.165918487        10.478760224        21.927893079
     7.793068583         1.158487466        37.967434533
    10.852603670         4.232951036        46.284606820
     6.180010088         9.330065729        20.316147550
     3.247487961         9.312946914        42.453555811
     0.010465190         1.662220469        42.745901337
     4.485254963        10.004172128        28.358026422
     5.044716384         9.883803667        46.324738175
     1.504487744         7.262399742        45.640101566
     9.540851868         9.979599271        30.504239209
     0.659578203         9.082464503        39.289640562
     1.460027065         3.657660837        46.519886674
    10.752489579         7.325217297        31.614098790
     8.954526007         5.457680166        22.152725711
     6.417526648         3.308953207        34.336277445
    12.845167759        10.221517563        24.035518456
    13.001520957         1.399123786        21.827441287
     5.351976651         0.624571048        41.757397809
     5.606565182         2.807763490        21.457911124
     0.067375140         3.832195989        23.586425336
    10.154914645         1.609531909        21.162939069
     1.452773678         8.563603131        25.547813444
     3.941525890         4.297417966        46.181963214
     2.440399820         4.789229895        31.933377114
     8.337793375         2.133345034        30.568927847
     5.243286471         3.291603858        41.591246312
     3.863039816         4.818286026        25.290612653
     9.998074738         4.847512140        35.554039301
     7.407060892         1.502536635        43.749894799
     9.919542498         0.930795196        24.082860499
     3.535087389         2.627804479        23.789839059
    10.518748923         5.107361005        26.118918899
     8.576858091         2.171128979        40.558407298
     2.761524045         8.236320983        29.797931275
     7.444682218         1.585557936        17.692412577
     7.519264450         7.619674033        22.387161374
     4.874873845         2.794592454        38.769049178
     4.292310977         6.524254052        17.546061721
    12.911860929        10.416823808        29.821944460
     1.129277335         1.237197132        17.726896824
     4.021583985        10.121106230        36.004596435
     0.944066011         7.851273479        41.770304686
     8.216976951         7.167328223        17.829328681
     5.196411812         2.063026921        45.445362543
     6.880675314         8.506303888        37.354716880
     7.601156702         2.765332911        25.880870882
    12.677428552         9.876141482        43.054740852
     2.927148965         0.614282358        44.298162207
     1.338302464         9.705843301        46.285773543
    12.946961856         4.825676679        36.105829315
     3.175710564         6.992107776        23.945767704
     8.479280832         9.126754808        26.887287539
    11.522221657         7.977657272        29.352635614
    10.353098182         2.654504967        26.600169831
     7.975160218         7.995483143        34.755075024
     4.118287986         8.468677312        33.852510766
    10.118470183         0.302966000        28.077348129
     1.780207510         5.578818126        29.548056161
     9.749493381        10.296109073        19.444633277
     6.857141151         4.550938653        38.054846229
     2.197056058         4.263490974        35.498011340
     6.612044220         6.106631539        31.481706544
     6.265591779         5.591020351        35.607139235
     9.352339905         5.209047371        28.908817990
     5.297809186         6.811032835        29.179722170
     7.489698856         9.817543553        46.104426596
    10.849667769         7.337316082        45.855356409
     2.984531093         1.501043367        34.345086767
    11.691955431         9.961126896        46.157717245
     9.575175783         3.969758954        38.069696710
     9.622827846         4.020273366        20.107452721
    12.477884265         7.090809183        37.622303191
     8.330416061         3.592962742        46.501432252
    11.236987696         1.812907480        40.788363977
     8.114854991        10.043520614        41.752158773
    12.483294400         5.587331805        28.222406054
     4.982216969         9.661784476        25.615651673
     1.557232935         5.681587151        22.283198193
     3.050863144         2.747849530        40.923667422
     1.804143677         3.625860688        40.698453361
     2.960299536        10.557370155        31.866043716
     1.510120496         9.934475132        32.220169485
    12.010146297         1.690299274        26.162783209
     0.046874721         0.765488347        26.970122090
     0.633384553         5.182475080        25.451070765
     0.055205951         5.919297170        26.730974660
    12.760937428         4.932640416        44.342393922
    12.796405343         3.389456924        43.874392030
     9.772454761         5.010514909        42.677401216
    10.066440089         3.926950563        43.629904598
     3.315517233         5.647258064        38.000436536
     2.097695505         4.799113534        38.512715016
     1.949085239         1.690688123        19.150931716
     1.273077440         4.410538952        16.818319453
     1.592670822        10.361146819        34.673146367
     0.379245195         9.614670994        35.326430091
     2.557018969         2.866497658        19.984404078
     1.488970971         7.339595563        18.477315874
     3.417395056         1.741845728        25.459120034
     2.657445469         1.075075975        26.624990748
     1.086160582         8.498647380        20.491475775
     0.933679731         9.009767725        21.962273555
     2.954040987         9.589028408        18.833634859
     1.360429906         9.827852308        19.007142883
     6.857776532         5.359791148        24.764311056
     6.880740260         6.245890553        26.115979654
     5.294790732         3.191774380        33.230902457
     4.005544901         3.718005590        32.275818822
    12.747594412         9.728095048        32.994425029
    12.948152806         0.653920550        32.693340297
    12.162184846         6.871787882        43.170347427
    11.961358841         7.145715412        44.773144806
     4.564077898         9.585295080        17.438416069
     4.606146115         0.255991222        18.292928716
     1.078414031         6.145342351        40.697314684
     0.160832292         4.896298965        40.495418262
    12.364037478         2.687634394        36.648322003
    12.057046388         1.152262098        36.811155631
     4.268036970         6.433425496        41.928308752
     2.997457629         5.538956220        41.869094739
     3.937578620         6.872654514        33.974301535
     4.757400218         5.684081082        34.563524858
    11.003572556         8.102064338        23.145782545
    10.369481953         8.177600061        21.803656678
     6.646731993         6.825805311        28.324309240
     7.857515225         7.418204863        27.338299022
     9.622262106         7.361784236        39.371193400
    10.234805287         8.360789230        38.455080006
     7.151600667         8.567774821        33.489314845
     5.735403300         8.473865118        32.924258962
     7.216679560         5.299420219        39.889650466
     8.162970288         5.751555364        41.049878278
    11.469075733        10.457429352        16.891943621
    10.800543842         0.436108765        18.216727099
     9.103439292         7.280501244        45.136654845
     7.654904361         7.997353907        44.930158840
    11.831486663         7.950709062        26.134330305
    10.214779809         8.179728165        26.237094509
     6.584427026         3.953403014        22.933068691
     8.007993490         4.541742832        22.958285059
     1.011500982        10.320112375        28.431546819
     1.571921442         9.663076224        27.074294216
     2.283994000         5.325435570        19.445149328
     3.754959196         5.281274250        20.093750734
    11.627507224         4.116376138        17.769786527
    11.843770970         5.434422394        18.531893845
    11.714538869         3.868911151        23.806989331
    10.790466156         2.824808509        23.987876319
     4.731686038         0.134940994        22.481587433
     5.859233092        10.102719635        21.685856888
    10.764773886         1.764843006        46.361728353
     9.623162752         1.683402487        45.109102225
     6.783723263         3.730782416        28.730460772
     7.520105627         2.543944614        29.354396918
     6.874531986         0.304883202        23.795566100
     7.262571022         1.130820216        25.114224281
     5.711235712         5.093762329        44.988287464
     7.049698586         5.660015338        44.387298747
     9.353144304         2.125561906        33.545443772
     9.340541523         3.632881414        34.285513762
     5.062363094         7.756626445        40.512891065
     6.053088287         6.890245119        41.353296456
     2.372143627         4.484136106        28.380356833
     3.263446645         4.453710331        26.962381330
     4.206356039         2.361887774        18.453928120
     4.483059688         4.711899728        16.769963539
     6.882382706         9.431332340        31.027926898
     7.657546829        10.000067927        29.758764710
     5.042343093         0.433922356        30.697960154
     4.740586468         1.704820401        31.480896008
     1.754088978         1.620129541        39.048689760
     1.142291216         1.503221299        37.508623392
     9.190533535         4.317058150        32.171814973
     8.083081993         5.236433627        31.532630090
    10.335230027        10.120330424        33.833952573
     8.855692069         0.084249128        33.938898775
    11.261967900         3.570294078        40.479563726
    10.855681985         5.006194365        40.865376130
     6.631185486         4.245368342        18.866204950
     7.727123474         4.206894372        16.971143380
     5.302094101         9.761882333        38.688149817
     5.760413630         0.129406844        39.892264375
    12.566221103         1.946674515        34.726975503
    12.578802756         2.881655514        33.478076719
    12.394044397         3.662944516        31.429888323
    12.150957683         4.945334931        32.154712380
     4.582259049         9.167846019        45.793980032
     3.573902013         7.326543736        45.246638150
     9.949125307         8.627357329        42.858035788
     9.189279204         9.835244537        43.107456553
     6.853815569         1.080802746        35.868460017
     6.131736336         0.708688569        34.526520657
     3.229981708         9.864385187        21.138562685
     2.887372661         0.748883030        21.429683992
     8.599691926         0.705376730        37.805599351
     7.061836568         0.515151144        38.285602226
     9.787970752         3.978121256        46.362527671
    11.341644141         3.519748445        45.761017293
     6.232858275         8.405806775        20.613816251
     5.495806491         9.361472614        19.656786207
     3.989098922         8.727820382        42.505508654
     3.329607135         9.789226645        43.292202703
     0.014317071         0.678841416        42.918963426
     0.892829558         1.790778726        42.216607206
     4.910247079        10.073356335        27.454068265
     5.257848607         9.892389880        28.939949310
     6.058908055         9.863419530        46.020310332
     4.523440856         7.194674428        46.389783001
     0.911322335         6.982190709        44.866033932
     1.473499192         6.926579317         0.284939436
    10.007585119         9.114911472        30.303568408
     9.430995778         9.946068696        31.485206714
     0.286828260         8.352652101        38.802477484
    13.081730856         9.789531291        39.266752031
     1.089730301         3.913668202        45.676485945
     1.635365030         1.870233686         0.337474917
    11.315578623         7.651879431        32.315565944
    10.217957500         6.482111404        31.914353353
     9.312304597         4.903946643        21.393514167
     9.527573016         5.149914578        22.838552883
     7.364387811         3.184794336        34.005045817
     6.406079214         4.110300255        34.902909527
    12.909759161         0.280194802        23.316779029
    12.600293839         0.158200303        24.865336394
     0.597837068         1.506159269        21.213315713
    12.078029634         1.406051163        21.456452720
     5.180890344         1.553374772        41.506911287
     4.446982605         0.187924521        41.812113206
     5.357729125         2.959937778        20.560985561
     5.881190930         1.858945556        21.499603253
     0.085286729         2.951228570        23.119674306
     0.716647140         4.489998485        23.174748695
     9.596406296         1.531640071        21.888619939
    10.008894225         2.603643651        20.856947648
     0.980417748         7.657487938        25.585280407
     0.880965546         9.125753830        25.020339514
     3.500689138         5.021396057        45.816189844
     2.418137986         3.882239872        46.406927663
     1.480443691         4.658398149        32.111007934
     2.722174786         5.416592109        32.564605280
     9.274621453         1.797418015        30.469456270
     7.966715588         1.344509272        30.939370915
     5.176204013         3.205643010        40.588585045
     4.723363085         4.068867816        41.840122980
     4.716665755         5.222397536        25.523068252
     3.429012682         5.636843977        24.904289808
    10.967524034         4.654588817        35.440696057
     9.746185014         4.579381077        36.442569224
     6.915172159         1.130547580        43.056760181
     6.661383332         1.666120627        44.401206874
     9.080712658         0.603212029        24.415971225
    10.481924171         0.227716652        23.798376333
     3.736947846         3.357122857        24.450196044
     4.314229299         2.409751358        23.284131811
    10.615020990         5.996118964        25.799337676
    10.667698985         4.546244398        25.350180049
     8.602515149         2.130172273        39.587068065
     9.467838528         1.912997295        40.808122548
     3.081665659         8.930061574        29.192805738
     2.803589523         8.521581584        30.727102996
     6.454259066         1.699599323        17.693639600
     7.466943270         2.924532970        18.607994495
     8.311002489         7.942151862        22.850336508
     7.849959504         6.690577963        22.225406124
     4.699304654         1.841267751        38.628977873
     4.067140932         3.332842346        38.670250711
     3.268581539         6.622630629        17.798953207
     4.855512309         6.612024167        18.348694444
    12.860955273        10.206725534        30.784067701
    12.407259867         0.645439551        29.678479561
     0.200240837         1.240136048        17.980347833
     1.216386250         9.925265120        16.674676460
     4.885082989        10.281136023        36.374966582
     3.852406954         0.347801223        35.550513889
     0.737328932         8.479202409        40.985399987
     1.723121945         8.225526561        42.179894686
     9.187811253         6.968176378        18.050101620
     7.563158998         6.803273517        18.527305481
     4.816520843         3.015110808        45.473361098
     5.151060660         1.723609721        46.345506411
     7.819004990         8.234725220        37.522828809
     6.207036894         7.795635596        37.564685008
     7.460678657         3.365528995        25.113248272
     6.907836317         2.914957446        26.586469246
    13.014013406         9.016268093        42.734895995
    11.606765767         9.930009519        43.259015595
     3.606410552         1.241550474        44.758818790
     2.340912112         1.322805319        43.948279833
     1.564492875         8.318413210        45.686139459
     1.927036242        10.252752257        45.760189929
     0.757042833         4.615503347        35.896509055
    12.963394142         5.474592100        36.791688740
     2.596928491         7.400788971        24.697729297
     2.507499689         6.423597363        23.377738920
     8.156227573         9.556948528        26.031319293
     8.946389678         9.863922227        27.412127928
    12.270741220         8.573370083        29.500988972
    11.291027224         7.663360094        30.286516297
    10.249299346         1.838964617        27.101173726
     9.490385971         2.827157687        26.193373236
     7.681964423         8.214402265        35.668925087
     8.921781939         8.040778842        34.749782700
     3.968225615         8.883633072        34.755453649
     3.400758932         8.955504847        33.202867442
    10.915533065         0.087733611        27.564578840
    10.187312069         0.051667388        29.085775701
     2.345032899         5.233175243        30.272280029
     2.218746675         6.435004229        29.386462177
    10.036629575         0.274087895        20.164347311
     9.995684232         9.363741373        19.460848207
     7.781778821         4.164430363        38.039681631
     6.377937751         3.808025227        38.313872829
     2.525307592         4.960523693        34.894739659
     2.801373316         4.309424979        36.260647329
     6.078396746         5.626518823        32.140574274
     6.830351830         6.923781370        31.947170251
     6.456037666         5.556520966        36.607436204
     6.908859031         6.176783926        35.152773422
     8.657971765         5.766379560        28.526957301
     9.371655665         5.011229533        29.919346225
     4.731310834         7.582066379        29.060082547
     5.524134578         6.724261175        30.140524433
     7.881623736        10.394585937        45.427710243
     7.920194223         7.103596101        47.023653122
    11.051092379         8.263560593        45.922987097
    11.044119612         7.023981407        46.718277317
     3.593197820         1.665140463        33.594662108
     2.708080579         2.341430944        34.709640126
    11.280041067         0.041134429        45.543257921
    12.601493395         9.774708356        45.852383509
     9.700001684         2.997444198        38.051974295
     9.866896584         4.189737397        39.023560334
     8.835489747         3.977064142        19.508523999
    10.454882889         4.409287571        19.619068229
    12.452506557         7.533605645        36.741160646
    11.525936137         6.962952620        37.853039555
     7.900016941         3.804699354        45.686860247
     7.962303128         2.282799902         0.268382955
    11.967568680         1.712773513        41.451441446
    11.535160909         1.233319286        40.046142841
     8.276802208         0.364695180        41.354446352
     7.722444185         9.529486898        41.019756623
    12.021903206         6.405112373        28.620951448
    13.125077660         5.333929697        28.890119566
     4.211164830        10.293507916        25.389671951
     5.692411355        10.096453269        25.077001319
     2.094816138         5.269084009        21.565942411
     1.065080405         6.308430584        21.701537537
     7.637592557         9.851731355        18.508476642
     7.518341895         3.592471083        42.351139380
     4.327047655         2.303358122        28.650543029
     2.318921214         9.589415050        37.689434656
     5.291291829         7.691965879        23.716329881
    11.209528564        10.466741543        38.505024739
    11.556398464         2.726017223        29.346796389
    11.811345376         8.573879087        34.278457330
     5.546847126         6.233224737        20.225891966
     4.292211992         7.660702171        38.213293426
    11.197322506         7.413940455        18.259048865
     9.704544037         6.801141628        41.728807479
