"Zn96 O231 H270 Na5 Cl5"
1.0
       13.1280002594         0.0000000000         0.0000000000
        0.0000000000        10.5819997787         0.0000000000
        0.0000000000         0.0000000000        47.0537719727
   Zn    O    H   Na   Cl
   96  231  270    5    5
Cartesian
     1.579218453         0.011277090         1.211219721
    13.085163638        10.464771123         4.016936537
     0.043683590         2.549026457         2.227919354
     1.645229977         2.464868884         4.866271148
     1.543800520        10.430300121         6.776593374
    13.116736319        10.457945925         9.500457608
    13.029235180         2.720292029         7.512595258
     1.527776792         2.582943199        10.144388615
     1.502173334        10.532140071        12.096872044
     0.059372630        10.502564214        14.965731099
    13.067944950         2.593589556        12.826518651
     1.506851743         2.860812201        15.484467225
     1.524668253         5.040260750         1.279502045
    13.117125999         5.166029891         4.023813474
    13.108672762         7.842006700         1.835916796
     1.583325351         7.777871537         4.602819904
     1.592130513         5.116522135         6.800724354
    13.039358251         5.322565089         9.559343481
    13.117388133         7.906155740         7.342150584
     1.506837071         7.808365747        10.075993668
     1.556213742         5.267091828        12.207463953
     0.047047382         5.380853957        14.880075097
    12.993325159         7.916865643        12.808472302
     1.598397767         8.204509796        15.266114675
     4.923426554         0.021302590         1.553364665
     3.170922118        10.453779912         3.978455352
     3.191160629         2.534765666         1.969548685
     4.930425143         2.550101074         4.752923697
     4.868002020        10.423051068         6.781138267
     3.319331088        10.575274237         9.409703502
     3.119207367         2.621931062         7.415211022
     4.890360492         2.675797995        10.053128976
     4.915301180        10.529255083        12.043772110
     3.387374835         0.044700087        14.836735252
     3.197894541         2.618190165        12.819292539
     4.795367014         2.695624877        15.390846092
     4.881399419         5.182974938         1.253041037
     3.236611940         5.138535148         3.925666380
     3.345750291         7.689470055         1.933235123
     4.869748146         7.818607644         4.792153717
     4.904770041         5.207820589         6.719672842
     3.154468509         5.212679466         9.427047293
     3.176733865         7.877049150         7.327456461
     4.818082301         7.806704388        10.047332520
     4.801070973         5.314796310        12.052134094
     3.224640629         5.203745717        15.020742384
     3.061272801         7.955685572        12.881299957
     4.752443927         8.026297766        15.728413365
     8.155261981        10.394473035         1.133479067
     6.454473469        10.512188619         4.034317139
     6.641128584         2.465522642         1.823132972
     8.126084502         2.507171739         4.778896613
     8.130367851        10.510052315         6.857666622
     6.603252165        10.544734614         9.476291571
     6.386632386         2.532171605         7.353695816
     8.076567765         2.590577474        10.044072146
     8.180616998        10.550416287        12.162978419
     6.484801990        10.575695569        14.957398563
     6.454348270         2.619897568        12.830815334
     8.073288350         2.710806385        15.541617035
     8.227679064         5.388814481         1.441559844
     6.593477303         5.053319515         3.870955891
     6.535375088         7.797385889         2.041586488
     8.078347929         7.776512931         4.743979753
     8.171653577         5.179134069         6.686023672
     6.490043889         5.277445365         9.442949508
     6.483541399         7.946199928         7.470129054
     8.158658769         7.746507542        10.241976888
     8.017212002         5.151253000        12.153287043
     6.416752766         5.329505712        15.028450891
     6.294289983         7.904372017        12.851453155
     8.122024162         8.164316123        15.317199487
    11.435026472        10.530812371         1.359316105
     9.778800754        10.533850628         4.007647274
     9.736450059         2.580658357         1.953900465
    11.392533364         2.487727557         4.995282069
    11.316436232        10.492774555         6.793609024
     9.698266904        10.368370643         9.468264739
     9.796180634         2.611922853         7.444489187
    11.377871853         2.492525095        10.036341903
    11.361446610        10.475001036        12.108996431
     9.795826167         0.078854948        15.029616212
     9.757695439         2.629493591        12.825283215
    11.355054451         2.861807818        15.289118196
    11.508290992         5.295129951         1.202644234
     9.825649200         5.103751301         4.096002025
     9.803282512         7.973262932         1.993879144
    11.414093306         7.754700807         4.767947363
    11.459607607         5.149238113         6.800964149
     9.739077659         5.223221278         9.465387196
     9.775050280         7.853793901         7.421060766
    11.429041208         7.919064389         9.947323858
    11.345024497         5.225940698        12.107624970
     9.771637842         5.342411208        14.838760190
     9.679553661         7.905623398        12.860303145
    11.478696445         8.183985635        15.745859525
     1.493807834         1.895445952         1.163406502
    13.088612853         1.849338811         4.049024233
    13.127215422         4.492510708         2.340280980
     1.611108825         4.468183207         4.926680281
     1.477061085         1.855372277         6.761901355
     0.008741690         1.864608149         9.327880018
    13.066681229         4.621834363         7.695732256
     1.526509158         4.571978756        10.337489739
     1.494332102         1.890686889        12.054595151
    13.010208941         1.954384479        14.858629544
    13.031741495         4.609626146        12.982043431
     1.622177240         4.686335669        15.869694865
     1.612562788         7.100454403         1.123123784
    13.083510237         7.130649644         4.011139030
     0.046123882         9.867161688         2.181956661
     1.628656158         9.742160469         4.936156051
     1.602869892         7.123415729         6.601972616
    13.016500159         7.225186929         9.307810834
    13.041046081         9.870072537         7.615775950
     1.629476697         9.801022045        10.273307335
     1.499579087         7.189012308        12.059294298
    13.069651561         7.342283130        14.789696109
    13.005611031         9.885460611        12.935799399
     1.792421588        10.048700221        15.637441199
     4.840533498         1.877434645         1.556174897
     3.244968149         1.827286376         3.974669110
     3.259608533         4.418088235         2.023547852
     4.939546626         4.522103280         4.841135762
     4.803152004         1.800074361         6.543529874
     3.163739448         2.014642505         9.278234679
     3.345686518         4.546465471         7.569036200
     4.784306912         4.602425029        10.169675801
     4.855311600         1.958860026        11.952721415
     3.192354709         2.004200823        14.649243376
     3.227062630         4.654717172        12.989001701
     4.813417097         4.596958438        15.773914172
     4.935599748         7.079860231         1.340722679
     3.195529074         7.142032543         3.905979677
     3.162040467         9.733494151         1.943031322
     4.841179052         9.825706543         4.716900764
     4.867073596         7.205381177         6.680054732
     3.109381252         7.167333900         9.221335181
     3.213603415         9.793996273         7.616789120
     4.922570902         9.792750569        10.136893259
     4.656161297         7.245589357        11.944844630
     3.237102366         7.181407520        14.758118855
     3.210026263         9.901517897        12.909135844
     4.906680099         9.900844901        15.691925215
     8.318017510         1.783359690         1.125797817
     6.528282992         1.913480912         3.992137707
     6.644217071         4.469350069         1.996461676
     8.127320835         4.475508579         4.850406445
     8.118807347         1.857173975         6.656833853
     6.476358926         1.890479850         9.271976161
     6.567169996         4.555563212         7.548509863
     8.121840277         4.513215574        10.206819531
     8.129335747         1.985323042        11.923759472
     6.402336956         1.946700533        14.660344075
     6.374724065         4.594477752        12.911155173
     8.055383419         4.621029228        15.463543332
     8.134171534         7.324419416         1.269086112
     6.486857200         7.158974751         3.907656842
     6.587838681         9.803179794         2.132878206
     8.146549740         9.777902405         4.910785779
     8.147698435         7.224821102         6.642079431
     6.541429994         7.247688448         9.300828724
     6.478248638         9.872184873         7.555299155
     8.181311066         9.701596553        10.300491848
     8.036326663         7.101119830        12.163415940
     6.387135527         7.341329457        14.879889992
     6.525949216         9.843609994        12.821268397
     8.144433887        10.049904928        15.467698382
    11.493638088         2.033106839         1.282448653
     9.834107915         1.980901580         3.946633394
     9.752518487         4.509744317         2.144866042
    11.399715838         4.515543937         4.953420962
    11.454193560         1.869350025         6.847297929
     9.758995937         1.908763004         9.258140954
     9.782234319         4.559453909         7.568721381
    11.443989111         4.500078913        10.264818441
    11.392250886         1.913912809        12.129801127
     9.699470374         2.092022028        14.837182589
     9.732352160         4.575739836        12.863269034
    11.434468557         4.739000576        15.523050428
    11.412083089         7.126551750         1.593006789
     9.809112843         7.147017252         3.968787464
     9.823769660         9.937179098         2.119467724
    11.446880410         9.775841158         4.983454272
    11.397165704         7.072146956         6.692278683
     9.761686919         7.158112535         9.319966072
     9.765216731         9.817980022         7.622898291
    11.428256371         9.857599095        10.197623171
    11.350586434         7.208567657        11.987605320
     9.859928513         7.402566386        15.051567999
     9.760007696         9.798912232        12.956282965
    11.483284183        10.064876716        15.702610830
     8.719548235         2.082626106        42.061960274
    11.575650843         8.609965405        30.598704533
     8.382608913         7.736625165        27.202462699
    11.993572381         9.129348396        26.343835670
     3.053606553         1.888141868        41.855021139
     9.141297713         1.523600390        45.674382478
     3.139426708         2.311707494        37.930665920
     0.205211371         4.467411816        18.951332280
    10.872491431         4.645729494        35.345403368
     2.792990894         6.119179407        19.234544550
     4.029196829        10.014622168        26.290954496
     0.755127053         3.148970719        23.490226754
     1.641110755         5.789852413        23.267452716
    10.063859437         8.013796572        20.632346398
     4.330434271        10.554713494        31.844666877
     9.267263702         8.253708492        33.293709193
    10.176818099         4.484660563        43.710658118
     5.431279644         0.433361159        19.015346406
     9.539890970         4.323526036        40.844672400
     8.554801269         2.910674431        35.863324751
     2.021300439         5.408251882        41.667411468
     2.056769919         3.434886970        35.171850470
     2.713418334         7.459004043        27.227791252
     5.054167296         5.758550230        27.172910382
     6.671525964         7.764139146        38.199438587
     4.863148236         4.320990475        31.652782960
     6.114809126         1.805028637        42.776037015
     9.302769176         2.993150461        19.921431870
     3.627555773         6.745776223        45.109848254
    12.376340565         6.656155527        25.334266616
     0.770474857         0.421388325        22.054573710
     2.184221465        10.507897720        29.616441293
    12.764284919         5.098774160        21.486822584
    10.613995146         4.383210408        18.104250484
     1.097796108         9.015998138        24.569827253
     6.360166234         2.181868685        23.203188978
    11.754531139         4.087789906        46.812010634
     4.956343552         1.460601183        28.388181732
     8.226548366         7.925009710        23.566798581
     2.305750542         0.321327701        39.564050521
    12.012206593         4.352338702        32.517627839
     4.821804214         3.746499420        39.463580499
     0.042407242         5.492029436        27.953978357
     2.881000847         1.947896725        17.659403563
     6.603397708         8.773443434        32.705921838
     4.415625891         7.544495308        29.782542307
    12.554655904         7.674681811        40.407196029
    11.334281694         1.761927900        34.685556825
     5.121099517         6.722339322        33.245786594
     8.559137827         6.714457641        42.381218965
     7.401634325         4.884264201        19.626420549
     1.759366481         7.504740627        37.909835983
     0.294126249         9.036581588        35.970839988
    12.222190076         2.027080311        30.484317969
     5.549668002         7.192491450        41.763441772
     7.056381049         9.536903727        44.084985590
    11.015660458         8.002540452        35.518328031
     3.618732418         1.494727015        23.827493932
     4.518284639         7.054017702        36.156113407
     8.677579395         4.819259883        46.019309082
     7.124991319         7.599961000        19.436875689
    12.307642656         6.227894384        42.881260874
    11.768454763         9.304898718        42.952717068
     4.299413246         5.999972763        21.597030259
     4.387916363         9.555147145        44.652742325
     1.248908189         7.750024528        45.827596247
    10.081717420         9.387138537        28.445152046
    11.352451890         6.487350930        38.427451662
     1.426509799         3.803000781        46.917116699
     9.449881170         0.612151889        36.783409492
     6.684433134         4.981173370        22.421452101
     2.243724923        10.439814148        34.262762658
     3.903812621         9.408169809        22.856552956
     0.696395472         8.272161945        19.689861130
     2.078727756         9.090744179        43.526725309
     6.773817725         4.719011596        25.384786297
     0.641397786         1.571437957        28.250222309
     9.945902231         3.031287303        22.533223354
     6.413483915         8.739674441        22.058790461
     4.560665460         4.739739799        46.256678380
     1.364981649         1.435518849        31.915382650
     7.835655590        10.296401734        34.622217211
    11.433776054         1.227811066        40.239294447
     0.776529078         7.995237156        29.567809124
    12.718754968         1.816011491        36.954533586
     2.134984469         7.862563028        41.016646295
    10.965769692        10.561171603        24.186087466
     3.030903003         1.976564953        26.700157459
    10.090414794         2.747092016        26.073621427
     4.575339100         9.594746033        41.504361885
     5.932492525         3.964672065        29.175798502
     7.477069471         2.729514340        17.692350876
    12.614951437         8.204874992        22.405012802
     4.968146628         9.757079275        37.938420704
     4.998576483         6.390644543        17.384870200
    12.563747653         1.901349644        25.616902536
     3.539844536         8.893451114        18.612065406
     2.556547127         7.710056028        34.014514225
     9.332404412         8.189611173        37.812681025
     7.975745520        10.213454860        18.277594437
     5.183447521         4.151865465        41.967326672
     7.484785603         5.214153497        37.028275549
     6.786612998         9.261025329        25.504683945
     9.397490348         9.267718703        41.840647444
     3.487312084         1.621759364        44.459105519
     0.695299889        10.134429904        46.497842334
    12.041924773         3.892033630        40.660484370
     8.335132127         0.043336420        21.964656083
    10.285430812         5.777920143        22.781216566
     7.208250580         7.217876695        29.496215503
     8.495413424         1.056033335        29.408599069
     8.489702031         6.108231086        34.864859201
     0.619631072         5.663494479        34.253709333
    10.163546290         1.260826644        32.240404842
     2.380498857         6.730658734        31.494888274
    11.495766460         1.021084314        21.141342066
     6.211839425         0.894624516        39.502629270
     4.432679865         0.805351830        35.663301818
     2.456303143         3.724499652        32.350702265
     4.235234998         6.309340737        39.280604066
     9.181999702         5.571413912        25.304700277
     7.985342758         3.278785088        31.335100467
     8.259034995         8.861220487        46.346594605
    10.732664418         7.594233914        45.065650195
    12.806908703        10.009306952        32.888673901
    10.862677444        10.513919360        46.419952334
     4.335341656         4.523433187        35.740930988
    11.845628601         7.299504700        17.856729851
     7.496032328         3.369403924        39.012316599
     6.469572783         3.294799168        45.150924768
     8.766532834         0.038968630        39.396420987
    12.808095740        10.115634592        38.694045135
    11.018953958         3.722245085        28.751896508
     6.742460229         9.861484431        30.124260422
     2.206303132         5.052061827        25.877746531
     9.249804007         2.524354416        42.788845730
     8.868070275         2.861083102        41.456436481
    11.071407379         9.017342868        29.859571287
    10.917104304         7.959546940        30.959524938
     8.815619984         7.160454459        26.558350092
     7.721268885         8.243652031        26.659905504
    11.546806704         9.034095225        27.200370450
    12.231403111         8.232899869        26.082955214
     2.718300874         1.592657662        40.942671550
     2.839554123         2.814591211        41.828068709
     8.468721132         1.727989712        44.966832095
     8.690122706         1.687830414        46.590027499
     4.025693622         2.625385132        38.137403122
     2.500581697         3.071252649        38.164324702
     1.172951220         4.762376296        18.838737871
    12.886041113         4.530497119        18.093368545
    11.237142629         3.911844428        34.772881578
    10.450570588         4.118637328        36.051514979
     3.219538208         5.661754908        19.946207912
     2.479948224         7.004023017        19.454361113
     3.492637709         0.269106122        26.459806846
     3.539979907         9.184033237        26.500813244
     0.287152455         3.692976711        22.874980734
     1.633707228         3.583238680        23.639758054
     2.484587997         5.952159164        22.866026974
     1.060093109         5.415555178        22.561520601
     9.161676877         7.924225705        20.332504114
    10.604020748         7.944920164        19.853966655
     3.468657136        10.190980463        32.198127950
     4.680527247         0.691051367        32.449183810
     8.325573232         8.528529144        33.190409305
     9.353649010         7.559453220        32.623737959
     9.711249975         4.765274844        44.511664160
    11.108176574         4.787991444        43.820776046
     4.762430844         1.074349367        19.327000361
     5.697205670         0.587696191        18.069748007
    10.480736352         4.380998731        40.714164861
     9.405300379         5.153564649        41.389888377
     7.893081734         2.720417230        35.136346743
     8.012348828         3.424032944        36.452612580
     1.247672735         5.049658091        41.237513190
     2.236420577         6.294670440        41.282350704
     2.887119330         3.920939330        35.479167075
     1.556346276         3.175257287        35.890796037
     2.781502770         6.659714772        26.656929799
     1.828451526         7.773648758        27.397484989
     5.588992418         5.327687299        27.899349903
     4.554634420         6.467299822        27.619782241
     5.979764299         8.440679556        38.032428875
     6.288624366         7.075569332        38.676064695
     3.922777826         4.079985175        31.637926870
     5.264186774         3.720823720        32.337879527
     7.039734361         1.850541152        42.382523115
     5.891692334         0.864693081        42.891531405
     8.901112471         3.858962863        19.681227097
     9.287117033         2.981658445        20.977183254
     2.735185439         7.119324773        45.400132382
     4.193947316         7.489660983        45.274575003
    12.586907003         6.666752528        24.419000218
    12.797005512         5.896436762        25.789731841
     1.494631111         1.006656141        21.710649758
    13.063709333         0.744780169        21.667664698
     1.664185205         9.660856663        29.672250493
     1.748595313         0.406571540        28.887960006
    12.735170039         4.865171496        20.512328150
    11.872271596         5.456693064        21.650162446
    10.515719905         4.354094041        17.131231281
    10.759480343         3.525240897        18.521100252
     1.603762615         9.541703630        23.935076480
     0.322611592         9.542989071        24.900354922
     6.649886992         2.020501258        24.097071525
     5.480197776         1.886633620        23.292130597
    11.610535020         2.808049845         0.527497813
    10.984630043         4.121506232        46.178311594
     5.266028364         2.325095819        28.706913154
     5.788210015         1.301539886        27.837261151
     7.678891585         8.463403725        24.244892004
     8.596553359         7.229976741        24.096645223
     2.687091073         0.983817494        38.948553487
     1.429542338         0.069564768        39.204093940
    12.340036951         3.827385048        31.788896941
    11.276792169         4.821807427        32.152081643
     4.597507036         3.927513180        40.414381474
     5.783306934         3.936197789        39.527660533
     0.122514622         6.337148640        28.390882584
     0.777083521         5.370431670        27.260437068
     2.212674359         1.702776500        18.400390665
     3.547349005         2.568651660        18.065407852
     6.067356206         7.916350331        32.822352972
     6.388745500         9.221811190        31.834575842
     5.309934648         7.183167274        29.923721438
     3.869448799         7.321348991        30.490190851
    12.034056838         7.191233761        39.703294462
    11.952519054         8.276221994        40.877220054
    11.131629358         1.737779371        33.735041921
    11.027159146         0.968157887        35.142185969
     4.776131067         5.934813914        32.705187026
     4.338467312         7.108554950        33.649969280
     7.630552496         6.709899309        41.986490664
     8.968501274         7.621017502        42.182985381
     7.326792306         4.954447494        20.571746900
     7.427237391         5.814713516        19.343563065
     0.982756219         7.871126536        37.440675782
     1.660711146         6.523086559        37.966674480
     0.889382299         9.285065214        35.232968822
    12.593141099         8.850827844        35.465373937
    11.417870384         2.418053110        30.018108232
    11.844192732         1.278791434        31.015199517
     5.466073444         8.193024718        41.800115028
     5.013694185         6.968194039        42.592255655
     7.540462881         9.479382465        43.234918271
     7.600577660         9.311931428        44.894885092
    10.607893290         8.322799350        34.675922944
    10.477968685         8.376519795        36.258280227
     3.257002842         1.905498786        24.619603709
     3.149546062         1.941707624        23.126922855
     4.419469090         7.121618130        37.162510432
     3.589906668         7.272010272        35.888114817
     8.368460715         4.018541048        45.526118868
     8.256293150         5.654505856        45.839137272
     6.675243573         8.002117858        20.198022423
     6.349509114         7.150941063        19.025894595
    12.209340029         6.793777150        42.134075555
     0.109456310         6.002861535        42.715129009
    12.604479376         9.864278593        43.132585978
    11.581073497         8.601743757        43.634089096
     5.177509206         5.612788323        21.858132280
     4.646813283         6.809216314        21.197368625
     5.362027732         9.405383847        44.387270700
     4.211959448        10.499890522        44.867425025
     0.421020393         7.317039800        45.476353631
     1.551525944         7.264413053        47.013564892
     9.512397409        10.041776628        28.856576271
     9.480250381         8.890090550        27.764856994
    10.427660852         6.764157141        38.218411864
    11.234219247         5.558660423        38.580757984
     0.492589208         4.014227127        46.570585850
     1.390645162         2.848138500         0.483214125
     9.031357897         1.532867957        36.569237233
     8.963247638         0.005043820        36.180833358
     6.358772619         4.085007097        22.612922336
     6.958241179         5.242025420        23.293807762
     3.078588322         0.217012721        34.638054919
     2.006636972         0.579861342        33.659549874
     3.665849650         9.925019133        23.680066101
     3.730396450        10.150964657        22.250452813
     0.463232783         8.985254788        20.334695927
     1.456298403         8.495154992        19.142498214
     2.824322372         9.687193058        43.923324294
     1.982319341         8.454358335        44.312659305
     6.749486205         3.794435381        25.437838552
     6.055553521         5.082468680        25.885229267
     0.085137903         1.894031053        29.006730196
     0.087278954         1.441780957        27.483286832
     9.962817313         3.980197640        22.365982260
     9.998631088         2.946802378        23.533109446
     6.867907428         8.015835743        22.611085308
     5.527401473         9.013513037        22.449966707
     4.194686768         5.617438742        45.946018664
     3.961455905         4.033366190        45.909839023
     1.783466384         0.929284030        31.183600322
     0.610808597         0.897501778        32.276416206
     7.215855598         9.629810559        34.349506854
     7.495677078         0.421724349        34.051602565
    11.399630547         0.767728013        41.089190683
    11.969819903         0.585872732        39.715413240
     1.315278582         7.430157948        30.194224556
    13.064505125         8.194793302        30.091283661
    13.086082281         2.607881410        37.407090417
    12.364236231         2.195074096        36.150933268
     2.250165597         8.222537502        41.919067518
     1.088961798         7.807941892        41.033488059
    10.881029960        10.069687973        25.050646274
    11.520858560         0.649911945        24.586455865
     2.214843030         2.231797300        27.167180537
     3.745319704         1.768558358        27.340904517
    10.386322698         2.964877704        27.004335690
     9.115687604         2.612001695        26.098094571
     4.051658198         9.735345363        42.281674468
     4.686191299        10.453378133        41.054203007
     6.820822669         3.899351433        29.621122209
     5.410375820         4.172583261        29.943168696
     8.283044911         2.456307900        18.164314297
     7.321786719         3.662582788        17.894987718
     0.102182872         8.678318933        23.038950234
     0.005100980         7.395811831        22.246868504
     4.873776794        10.209076919        37.095367749
     5.471298128        10.369499030        38.586810361
     4.955048532         5.583743546        16.753103546
     4.300825640         6.329823899        18.103174910
    13.103536499         2.451382006        25.026540536
    11.736328079         2.324934508        25.872476644
     3.999925842         9.243085926        19.319289050
     3.381558980         9.492833548        17.882937654
     1.768083808         7.213405405        34.230139279
     2.482864954         8.689801488        34.000830468
     9.587704227         8.927366437        38.388273878
     8.377179216         8.013535447        38.051691028
     8.137317143        10.221947725        17.266522106
     7.541415954         9.356065311        18.449840381
     5.909530754         4.517722816        42.491421031
     5.310758610         3.208486370        42.196904727
     7.924011208         5.732710223        36.285633719
     6.622333961         5.631736274        37.150329953
     5.817719270         9.173870813        25.663860344
     6.924187223        10.224457425        25.649865274
     9.829835520         9.826079938        42.484162666
     8.981140050         9.818695908        41.143791091
     2.682997869         2.061968860        44.844780496
     3.495545050         1.634723834        43.434094209
     0.861635602         9.125976480        46.282789424
     0.870559898         0.169292215        45.737705264
    12.119636964         2.955539338        40.534186571
    12.686828602         4.300473568        40.014158916
     8.109717163         0.770373242        22.620629441
     7.506606113        10.084215723        22.026893480
    10.249023127         5.811608401        23.787270024
     9.956407157         6.620424314        22.524433664
     7.634411736         7.213213030        28.578472623
     7.949593147         6.870866376        30.116469178
     8.411118928         1.792999549        30.011514563
     8.510462267         1.544646958        28.599754105
     8.951004020         6.963543620        34.716160875
     9.182585787         5.480278188        35.185234133
     1.184482185         4.992760627        34.540950444
     0.151553002         5.207665743        33.528686148
     9.663950814         0.417302612        32.373220586
     9.586674470         2.067674659        32.378137091
     2.321234450         5.728667203        31.694420398
     2.269607143         7.202133516        32.394314159
    11.204761636         1.717715017        21.751525742
    11.296365369         1.270933563        20.224195169
     6.273918644         1.868640289        39.565640743
     7.146419802         0.509701622        39.483824270
     4.052918007         1.566417138        36.129766775
     5.191151133         1.197886884        35.132869010
     1.923852291         2.848804558        32.218489515
     2.556989039         3.762510977        33.331002270
     4.353470380         5.295305926        39.262315117
     4.564228528         6.528462956        40.187181740
     8.242534632         5.363007273        25.439406337
     9.684903544         4.850577834        25.714935341
     7.540741448         3.087535739        32.192187758
     8.346244265         4.162357764        31.322151521
     9.224815196         8.703359796        46.182061376
     8.114926980         8.124295271        46.995545187
    11.369521905         7.549799170        45.790432183
    10.564629430         6.760249729        44.590230075
    12.066842378        10.191424501        33.442996490
    12.415702149         9.488717363        32.128601337
    10.240814809         0.566673907        45.939495110
    11.705779678        10.501860312        45.898687840
     4.804349996         4.154374534        34.993798956
     4.617891678         5.499733881        35.887329523
    11.719861364         6.334966923        17.930950001
    12.610994386         7.540999136        18.468704278
     8.231263650         3.540519539        39.617425309
     7.597442223         4.019735032        38.298256686
     5.849624509         3.961645477        45.453930667
     6.181650969         2.854731272        44.340172660
     9.525271714         0.608100157        39.579327305
     8.846974350         0.047499201        38.380645302
    12.701846146         9.176750124        38.956437283
    12.819437147        10.384581197        37.741987688
    11.752190712         4.314138156        28.472713080
    10.262333278         4.394363088        28.800680127
     7.137778767         9.029412639        29.752232742
     7.445604774        10.513445677        29.942203906
     2.683923359         4.245170291        26.190843465
     2.243508369         5.150999444        24.886612267
     7.657952941         1.145753687        20.009898104
     3.126672320         8.753920882        39.205844025
     4.602005961        10.171507740        29.303913697
    12.457860352         6.230454543        36.182420774
    10.457275743         9.522425805        22.283022904
     6.362014866         2.447780817        33.774505776
     7.452960960         1.613886986        26.144138072
     9.813812477         5.944569513        30.963510308
     3.253480268         2.101489380        20.789248247
     0.792605380         4.313906360        38.023549437
