"Zn97 O231 H270 Na5 Cl7"
1.0
       13.1280002594         0.0000000000         0.0000000000
        0.0000000000        10.5819997787         0.0000000000
        0.0000000000         0.0000000000        47.0537681580
   Zn    O    H   Na   Cl
   97  231  270    5    7
Cartesian
     1.641000032         0.000000000         0.947431933
     0.000000000         0.000000000         3.789726680
     0.000000000         2.645499945         1.894863866
     1.641000032         2.645499945         4.737158875
     1.641000032         0.000000000         6.632021514
     0.000000000         0.000000000         9.474317751
     0.000000000         2.645499945         7.579453359
     1.641000032         2.645499945        10.421749596
     1.641000032         0.000000000        12.316611884
     0.000000000         0.000000000        15.158908120
     0.000000000         2.645499945        13.264044430
     1.641000032         2.645499945        16.106339264
     1.641000032         5.290999889         0.947431933
     0.000000000         5.290999889         3.789726680
     0.000000000         7.936499834         1.894863866
     1.641000032         7.936499834         4.737158875
     1.641000032         5.290999889         6.632021514
     0.000000000         5.290999889         9.474317751
     0.000000000         7.936499834         7.579453359
     1.641000032         7.936499834        10.421749596
     1.641000032         5.290999889        12.316611884
     0.000000000         5.290999889        15.158908120
     0.000000000         7.936499834        13.264044430
     1.641000032         7.936499834        16.106339264
     4.923000097         0.000000000         0.947431933
     3.282000065         0.000000000         3.789726680
     3.282000065         2.645499945         1.894863866
     4.923000097         2.645499945         4.737158875
     4.923000097         0.000000000         6.632021514
     3.282000065         0.000000000         9.474317751
     3.282000065         2.645499945         7.579453359
     4.923000097         2.645499945        10.421749596
     4.923000097         0.000000000        12.316611884
     3.282000065         0.000000000        15.158908120
     3.282000065         2.645499945        13.264044430
     4.923000097         2.645499945        16.106339264
     4.923000097         5.290999889         0.947431933
     3.282000065         5.290999889         3.789726680
     3.282000065         7.936499834         1.894863866
     4.923000097         7.936499834         4.737158875
     4.923000097         5.290999889         6.632021514
     3.282000065         5.290999889         9.474317751
     3.282000065         7.936499834         7.579453359
     4.923000097         7.936499834        10.421749596
     4.923000097         5.290999889        12.316611884
     3.282000065         5.290999889        15.158908120
     3.282000065         7.936499834        13.264044430
     4.923000097         7.936499834        16.106339264
     8.205000162         0.000000000         0.947431933
     6.564000130         0.000000000         3.789726680
     6.564000130         2.645499945         1.894863866
     8.205000162         2.645499945         4.737158875
     8.205000162         0.000000000         6.632021514
     6.564000130         0.000000000         9.474317751
     6.564000130         2.645499945         7.579453359
     8.205000162         2.645499945        10.421749596
     8.205000162         0.000000000        12.316611884
     6.564000130         0.000000000        15.158908120
     6.564000130         2.645499945        13.264044430
     8.205000162         2.645499945        16.106339264
     8.205000162         5.290999889         0.947431933
     6.564000130         5.290999889         3.789726680
     6.564000130         7.936499834         1.894863866
     8.205000162         7.936499834         4.737158875
     8.205000162         5.290999889         6.632021514
     6.564000130         5.290999889         9.474317751
     6.564000130         7.936499834         7.579453359
     8.205000162         7.936499834        10.421749596
     8.205000162         5.290999889        12.316611884
     6.564000130         5.290999889        15.158908120
     6.564000130         7.936499834        13.264044430
     8.205000162         7.936499834        16.106339264
    11.487000227         0.000000000         0.947431933
     9.846000195         0.000000000         3.789726680
     9.846000195         2.645499945         1.894863866
    11.487000227         2.645499945         4.737158875
    11.487000227         0.000000000         6.632021514
     9.846000195         0.000000000         9.474317751
     9.846000195         2.645499945         7.579453359
    11.487000227         2.645499945        10.421749596
    11.487000227         0.000000000        12.316611884
     9.846000195         0.000000000        15.158908120
     9.846000195         2.645499945        13.264044430
    11.487000227         2.645499945        16.106339264
    11.487000227         5.290999889         0.947431933
     9.846000195         5.290999889         3.789726680
     9.846000195         7.936499834         1.894863866
    11.487000227         7.936499834         4.737158875
    11.487000227         5.290999889         6.632021514
     9.846000195         5.290999889         9.474317751
     9.846000195         7.936499834         7.579453359
    11.487000227         7.936499834        10.421749596
    11.487000227         5.290999889        12.316611884
     9.846000195         5.290999889        15.158908120
     9.846000195         7.936499834        13.264044430
    11.487000227         7.936499834        16.106339264
    10.040000541         3.022257051        27.974043169
     1.641000032         1.984124959         0.947431933
     0.000000000         1.984124959         3.789726680
     0.000000000         4.629624903         1.894863866
     1.641000032         4.629624903         4.737158875
     1.641000032         1.984124959         6.632021514
     0.000000000         1.984124959         9.474317751
     0.000000000         4.629624903         7.579453359
     1.641000032         4.629624903        10.421749596
     1.641000032         1.984124959        12.316611884
     0.000000000         1.984124959        15.158908120
     0.000000000         4.629624903        13.264044430
     1.641000032         4.629624903        16.106339264
     1.641000032         7.275124848         0.947431933
     0.000000000         7.275124848         3.789726680
     0.000000000         9.920624793         1.894863866
     1.641000032         9.920624793         4.737158875
     1.641000032         7.275124848         6.632021514
     0.000000000         7.275124848         9.474317751
     0.000000000         9.920624793         7.579453359
     1.641000032         9.920624793        10.421749596
     1.641000032         7.275124848        12.316611884
     0.000000000         7.275124848        15.158908120
     0.000000000         9.920624793        13.264044430
     1.641000032         9.920624793        16.106339264
     4.923000097         1.984124959         0.947431933
     3.282000065         1.984124959         3.789726680
     3.282000065         4.629624903         1.894863866
     4.923000097         4.629624903         4.737158875
     4.923000097         1.984124959         6.632021514
     3.282000065         1.984124959         9.474317751
     3.282000065         4.629624903         7.579453359
     4.923000097         4.629624903        10.421749596
     4.923000097         1.984124959        12.316611884
     3.282000065         1.984124959        15.158908120
     3.282000065         4.629624903        13.264044430
     4.923000097         4.629624903        16.106339264
     4.923000097         7.275124848         0.947431933
     3.282000065         7.275124848         3.789726680
     3.282000065         9.920624793         1.894863866
     4.923000097         9.920624793         4.737158875
     4.923000097         7.275124848         6.632021514
     3.282000065         7.275124848         9.474317751
     3.282000065         9.920624793         7.579453359
     4.923000097         9.920624793        10.421749596
     4.923000097         7.275124848        12.316611884
     3.282000065         7.275124848        15.158908120
     3.282000065         9.920624793        13.264044430
     4.923000097         9.920624793        16.106339264
     8.205000162         1.984124959         0.947431933
     6.564000130         1.984124959         3.789726680
     6.564000130         4.629624903         1.894863866
     8.205000162         4.629624903         4.737158875
     8.205000162         1.984124959         6.632021514
     6.564000130         1.984124959         9.474317751
     6.564000130         4.629624903         7.579453359
     8.205000162         4.629624903        10.421749596
     8.205000162         1.984124959        12.316611884
     6.564000130         1.984124959        15.158908120
     6.564000130         4.629624903        13.264044430
     8.205000162         4.629624903        16.106339264
     8.205000162         7.275124848         0.947431933
     6.564000130         7.275124848         3.789726680
     6.564000130         9.920624793         1.894863866
     8.205000162         9.920624793         4.737158875
     8.205000162         7.275124848         6.632021514
     6.564000130         7.275124848         9.474317751
     6.564000130         9.920624793         7.579453359
     8.205000162         9.920624793        10.421749596
     8.205000162         7.275124848        12.316611884
     6.564000130         7.275124848        15.158908120
     6.564000130         9.920624793        13.264044430
     8.205000162         9.920624793        16.106339264
    11.487000227         1.984124959         0.947431933
     9.846000195         1.984124959         3.789726680
     9.846000195         4.629624903         1.894863866
    11.487000227         4.629624903         4.737158875
    11.487000227         1.984124959         6.632021514
     9.846000195         1.984124959         9.474317751
     9.846000195         4.629624903         7.579453359
    11.487000227         4.629624903        10.421749596
    11.487000227         1.984124959        12.316611884
     9.846000195         1.984124959        15.158908120
     9.846000195         4.629624903        13.264044430
    11.487000227         4.629624903        16.106339264
    11.487000227         7.275124848         0.947431933
     9.846000195         7.275124848         3.789726680
     9.846000195         9.920624793         1.894863866
    11.487000227         9.920624793         4.737158875
    11.487000227         7.275124848         6.632021514
     9.846000195         7.275124848         9.474317751
     9.846000195         9.920624793         7.579453359
    11.487000227         9.920624793        10.421749596
    11.487000227         7.275124848        12.316611884
     9.846000195         7.275124848        15.158908120
     9.846000195         9.920624793        13.264044430
    11.487000227         9.920624793        16.106339264
    10.030000322         2.240000026        42.528769557
    11.870000028         7.689999874        29.958771192
     8.409999968         7.500000013        27.188768323
    12.140000478         9.079999585        26.058771638
     2.540000011         1.309999953        41.878772904
     9.770000091         1.919999887        45.768771171
     3.320000117         2.560000007        38.148772777
     0.489999998         4.079999997        19.278771897
    11.290000597         3.959999886        35.128771412
     2.730000075         6.300000162        19.628772037
     4.960000127         9.600000067        27.128771825
     0.910000025         2.669999952        23.138771915
     1.720000006         5.269999838        23.108770862
     9.410000012         7.419999939        21.288772379
     5.140000166         0.749999986        31.418768249
    10.030000322         8.579999752        32.728768451
    10.980000051         4.399999978        43.878772099
     5.500000245         0.269999994        19.908771588
     9.329999821         5.159999736        40.238772329
     8.500000379         3.470000062        36.378772311
     1.959999993         4.339999923        40.778768859
     2.480000064         4.279999867        35.188773519
     2.960000038         7.870000040        26.968770880
     4.410000181         5.319999885        27.378770322
     7.140000256         8.369999873        38.458770577
     5.070000195         4.110000025        32.118768528
     7.509999771         2.179999971        43.638769279
     9.090000029         2.499999952        20.288772781
     4.149999950         7.369999577        45.148772767
    12.009999972         6.339999569        25.498769732
     1.160000036         9.890000020        22.088771496
     2.570000083        10.539999677        29.258768108
    12.600000405         5.580000126        21.708773108
    11.219999843         5.319999885        18.868772455
     1.130000062        10.119999918        24.648769794
     6.430000318         1.489999962        23.108770862
    12.300000079         3.140000072        45.818769188
     5.340000254         1.880000008        28.078770602
     8.479999940         8.539999715        23.958770800
     2.140000033         0.089999985        39.398773677
    12.600000405         4.259999848        32.108770046
     4.530000077         3.490000081        40.628772004
     0.120000018         4.999999904        27.778768479
     4.070000150         3.770000025        18.768772215
     7.130000036         8.960000105        32.568767506
     4.190000046         8.069999595        30.078769797
    12.140000478         6.900000088        40.668774344
    11.469999854        10.550000001        34.578773596
     5.449999930         6.669999559        32.748768218
     8.329999776         6.610000134        42.778768054
     7.430000362         5.179999755        20.618773153
     2.320000072         7.560000069        37.688772514
     0.190000002         8.809999650        36.188773117
    12.550000090         2.539999989        29.958771192
     5.780000132         7.199999735        42.598772951
     7.140000256         9.939999751        43.848773850
    10.869999984         7.629999818        35.018771288
     3.870000063         1.239999967        23.608770661
     4.629999925         7.270000115        36.408770561
     8.979999962         5.899999792        45.258772891
     6.600000138         7.779999642        19.558772851
     0.190000002         5.399999959        42.718771556
    11.680000552         9.179999678        42.968772858
     4.239999970         5.919999810        22.018770908
     4.559999953         9.910000039        44.568771093
     1.680000106         6.579999791        45.018770070
    10.470000592         9.369999538        28.228770261
    10.500000468         6.349999893        37.808771119
     1.980000041         3.729999988        45.788770939
     9.790000530         1.059999957        37.058772823
     6.190000135         4.150000062        22.808772946
     2.410000092         9.809999946        34.438772419
     4.510000029         9.059999567        23.648770196
     0.860000003         8.169999688        19.578771216
     1.580000063         8.960000105        43.508772192
     6.300000202         4.729999969        25.398770894
     0.910000025         1.560000027        27.778768479
    10.550000001         2.119999915        22.338771396
     6.280000155         7.879999734        22.198771620
     4.820000183         4.989999894        45.858771527
     2.020000137         0.409999986        31.958770387
     8.590000007        10.419999566        34.428771133
    11.940000000         0.839999990        40.748770610
     1.480000019         7.759999623        29.368771036
     0.032000000         1.679999980        36.668773148
     2.060000037         7.930000096        40.978769339
    10.270000113         0.369999988        24.558772242
     3.230000097         2.050000008        26.428768741
    10.350000305         4.019999941        25.938770228
     4.899999984         9.769999909        41.248770409
     5.559999997         4.219999811        29.508769409
     6.589999918         2.829999785        18.938771642
    11.640000456         7.859999716        23.098770978
     4.830000012         9.989999482        38.038772653
     3.860000235         8.759999919        18.628772439
    12.469999898         2.259999887        25.388769608
     1.680000106         0.099999984        18.428771959
     2.400000068         7.290000134        33.598773766
     9.430000451         8.699999864        36.958771181
     8.530000255         9.499999974        18.848771285
     5.090000242         3.599999867        43.438774408
     7.229999884         5.989999560        36.478771149
     7.450000019         9.939999751        25.788770569
     9.180000440         8.849999687        41.798771029
     3.190000001         1.570000036        44.608770628
     0.649999990         0.739999976        45.548770923
    11.670000332         3.800000053        39.848772655
     8.240000148        10.339999491        21.648772403
    10.090000074         5.110000005        22.728772473
     7.390000267         6.249999801        29.568768712
     8.450000063         0.759999995        28.828768898
     8.220000491         5.749999968        34.168774154
     0.370000029         5.609999838        34.258774510
    10.530000344         0.489999981        31.128770216
     1.900000046         5.839999736        31.138771502
    11.780000400        10.300000085        21.168770969
     6.720000425         0.700000018        39.748771012
     3.969999911         1.219999948        35.738771335
     2.769999975         3.009999951        32.858768342
     4.730000164         6.650000171        39.708771477
     8.610000446         5.799999699        24.978770166
     8.860000457         2.689999970        31.188769519
     8.770000046         8.679999845        45.688772101
    11.940000000         7.210000060        45.638768475
    12.870000073         9.640000104        31.528768373
    11.259999938        10.109999594        45.648772565
     5.180000262         4.659999904        35.298770839
    10.939999955         8.049999577        19.028771998
     7.100000160         3.559999830        39.318768997
     7.350000171         3.619999886        45.888769776
     9.509999860         0.109999984        39.628772407
    12.850000416        10.409999872        38.408772561
    10.630000192         4.339999923        28.708770292
     6.979999873         9.139999641        29.538770463
     1.850000122         4.889999802        25.628769624
    10.560000220         2.929999877        43.028769356
    10.649999849         1.710000008        41.938772207
    11.399999882         8.180000012        29.228769859
    11.219999843         7.079999624        30.418768651
     8.860000457         7.049999911        26.418770260
     7.780000221         8.189999706        26.858770756
    11.759999961         9.250000058        26.968770880
    12.210000450         8.099999938        25.908769175
     2.609999983         0.739999976        41.068769696
     2.119999985         2.179999971        41.638770084
     9.630000147         1.919999887        44.778770055
     8.960000305         2.309999933        46.218772953
     3.829999967         2.699999979        38.988771430
     2.609999983         3.259999868        38.068770903
     1.030000019         3.460000053        19.838770999
     1.090000064         4.679999922        18.758772331
    11.719999865         3.389999988        34.428771133
    10.369999961         3.619999886        35.328771892
     3.009999962         6.109999671        20.568770930
     1.930000117         6.900000088        19.628772037
     4.570000172        10.389999853        26.658770275
     4.260000018         8.880000030        27.198769609
     1.440000021         2.369999989        22.338771396
     1.150000012         3.609999877        23.368772047
     2.580000107         5.279999848        22.608771063
     0.979999997         5.609999838        22.518772109
     8.590000007         7.210000060        20.748771643
    10.149999826         7.709999892        20.668771170
     4.370000085         0.899999967        32.038769458
     5.930000296         1.280000004        31.728768853
     9.130000125         8.679999845        33.138767893
    10.040000541         7.789999966        32.118768528
    10.240000237         4.919999829        44.308771309
    11.600000360         5.029999931        43.418771836
     4.879999936         0.929999995        20.328772317
     4.980000175        10.031999584        19.628772037
    10.160000046         4.619999867        40.068770098
     9.369999917         5.529999764        41.168774143
     8.049999889         3.219999831        35.528769568
     8.110000424         4.319999904        36.738773737
     1.640000010         4.519999774        39.848772655
     2.859999994         3.909999839        40.738772128
     3.460000060         4.470000043        35.188773519
     2.130000009         4.329999913        36.118769724
     2.750000123         7.089999948        26.378770724
     2.560000059         7.719999586        27.868771640
     4.710000116         4.529999783        27.908768370
     4.160000170         6.059999940        27.998768727
     6.350000126         8.839999993        38.048771135
     6.839999929         7.879999734        39.278769462
     4.219999922         3.629999895        32.328770294
     5.840000276         3.599999867        32.508771007
     8.380000092         2.359999980        43.188773106
     7.299999856         1.209999939        43.588771262
     8.549999911         3.319999923        20.468772092
     9.700000119         2.319999943        21.058772247
     3.210000049         7.119999661        45.368770210
     4.210000094         8.349999855        44.958770768
    11.290000597         5.659999569        25.378771127
    12.710000472         5.979999866        26.118770941
     1.840000098        10.579999714        21.848771481
     1.070000016         9.849999983        23.088771094
     2.010000113         9.709999854        29.198768805
     2.199999981         0.637999976        28.628771222
    12.560000309         4.989999894        20.898772704
    11.770000180         5.460000014        22.248771039
    10.490000248         4.749999987        18.508772432
    12.009999972         4.739999978        19.108771068
     1.410000047         0.487999995        24.778769685
     0.380000004         9.899999714        25.288770770
     6.869999805         1.429999906        24.008768817
     5.460000149         1.249999976        23.188771334
    11.480000073         2.689999970        46.178770613
    12.130000259         3.480000072        44.898771465
     5.490000026         2.599999887        28.758768309
     6.010000096         1.969999934        27.338770787
     7.920000165         9.009999836        24.648769794
     8.540000474         7.569999762        24.188769530
     2.480000064         0.899999967        38.918773646
     1.259999982        10.401999612        39.018772484
    12.750000568         3.490000081        31.488768837
    11.689999989         4.639999885        31.948769101
     4.719999944         3.199999812        41.568769495
     5.379999958         3.760000016        40.178770222
     0.770000032         4.929999839        28.528769579
     0.529999996         4.649999894        26.938769826
     3.579999956         3.009999951        19.188771541
     3.620000052         4.629999876        18.998772347
     6.530000166         8.169999688        32.668771953
     6.900000464         9.449999613        31.728768853
     5.120000119         7.729999911        30.258770510
     3.550000080         7.310000152        30.128770618
    11.940000000         6.490000023        39.778769261
    11.530000389         7.679999549        40.818771199
    12.110000602        10.240000029        33.878773317
    10.550000001         0.017999999        34.188773922
     5.270000282         5.759999662        32.378771116
     4.620000096         7.029999893        33.158770465
     7.330000514         6.590000116        42.748769805
     8.650000542         7.500000013        42.468773059
     6.909999901         4.829999746        21.398772503
     6.890000244         5.859999754        20.128773238
     1.600000013         7.959999809        37.118769321
     1.990000065         6.729999615        38.128773010
     0.870000027         9.279999770        35.628774015
    12.548000046         8.530000021        35.618769925
    11.920000343         3.160000090        29.488769642
    12.070000506         1.710000008        30.228769456
     5.190000090         7.749999929        42.008772795
     5.340000254         7.079999624        43.488772425
     7.220000447         9.469999631        42.968772858
     7.720000469         9.479999956        44.528768753
    10.680000507         8.119999957        34.168774154
    10.270000113         7.979999827        35.738771335
     3.559999908         1.779999915        24.398771297
     3.360000212         1.519999990        22.798773062
     3.750000167         7.429999633        36.868770824
     4.500000200         6.659999865        35.638769692
     8.360000435         5.229999801        45.678770814
     8.640000322         6.149999708        44.348773649
     6.430000318         7.839999697        20.538772681
     5.770000304         8.019999864        19.058773052
    12.698000209         5.769999986        42.018771277
     0.790000031         4.719999959        42.298770828
    12.579999966         8.759999919        42.978771340
    11.460000417         9.529999687        43.888770581
     4.940000079         5.209999783        21.948771721
     4.660000192         6.769999652        22.338771396
     5.550000169        10.039999844        44.578772379
     4.110000246         0.218000001        44.678771217
     1.670000082         6.499999717        44.018770473
     0.740000009         6.579999791        45.348773247
    10.079999854        10.220000011        28.598770168
     9.729999995         8.729999576        28.018768494
    10.110000513         7.250000097        37.618771925
     9.850000282         5.810000023        38.338771972
     2.080000085         4.659999904        45.428769513
     1.059999992         3.619999886        46.158770846
     9.410000012         1.979999943        36.948772699
    10.100000294         0.719999958        36.178771831
     6.390000222         3.169999784        22.768772008
     6.120000163         4.430000006        23.768768801
     2.890000066        10.519999658        34.958771985
     2.430000140        10.039999844        33.468771070
     4.340000209        10.039999844        23.708772303
     3.879999891         8.579999752        24.258770119
     0.929999975         8.579999752        20.488770457
     0.860000003         8.889999724        18.888772223
     1.200000034         9.849999983        43.748772208
     1.900000046         8.499999678        44.338769559
     6.430000318         3.760000016        25.598768570
     5.570000217         5.099999996        25.978769764
     0.600000017         1.999999961        28.618769936
     0.160000004         1.499999971        27.128771825
    10.430000496         3.090000026        22.528771993
    10.500000468         1.599999906        23.198771218
     7.220000447         7.769999948        22.518772109
     5.760000084         8.419999604        22.858770962
     4.450000277         5.919999810        45.808770706
     4.169999998         4.399999978        46.328773077
     2.300000024         0.369999988        30.998770325
     1.130000062        10.552000066        32.068767707
     7.990000137         9.950000076        33.778768870
     8.170000176         0.688000023        34.728770451
    12.460000461         0.470000002        41.518771478
    12.270000202         0.439999974        39.898773476
     1.840000098         7.089999948        30.018770494
     0.480000023         7.719999586        29.358769750
     0.142000000         2.679999961        36.708769879
    12.710000472         1.429999906        35.818770405
     1.939999946         8.419999604        41.838770564
     1.320000028         7.270000115        40.858770734
     9.420000232         0.219999987        25.058772041
    10.990000271        10.361999575        24.928769344
     2.380000020         1.869999999        26.928768540
     3.980000130         2.189999980        27.078771004
    10.570000440         4.049999969        26.918770059
     9.729999995         3.249999858        25.768770802
     4.700000288        10.199999992        42.128771401
     5.590000265        10.309999779        40.758771896
     6.129999991         5.049999950        29.448770107
     5.390000178         3.999999923        30.468769472
     6.689999766         3.649999914        19.508772029
     5.760000084         2.899999849        18.398772308
    11.820000495         7.310000152        23.918771265
    12.039999848         7.409999614        22.298771861
     4.460000105        10.439999584        37.228769445
     5.379999958         0.068000000        38.558772220
     3.500000156         7.830000003        18.728772680
     3.200000025         9.319999808        18.138772524
    12.920000388         2.629999915        24.578769205
    11.520000169         2.579999868        25.418770662
     1.970000017         0.479999972        19.308772951
     1.520000017         0.839999990        17.778772501
     1.520000017         6.820000013        33.638770497
     2.330000096         8.169999688        34.078773798
     9.619999928         9.679999510        36.968772467
     8.509999816         8.530000021        37.318769802
     9.470000547         9.169999984        18.778772099
     7.909999946         8.709999558        18.818770231
     4.680000240         4.130000043        44.178771418
     5.970000000         3.229999840        43.738770922
     7.689999811         5.979999866        35.588771676
     7.009999749         6.929999800        36.728769647
     6.580000481         9.580000048        26.098768369
     7.430000362         0.357999993        25.818768818
    10.100000294         8.969999799        42.178772222
     9.040000497         9.479999956        41.028770161
     3.060000082         2.479999933        44.998770303
     3.060000082         1.609999915        43.618769512
     1.620000060         0.519999969        45.488771620
     0.540000020         1.679999980        45.868770009
    11.980000096         2.899999849        40.168774545
    12.280000422         4.120000034        39.118771322
     7.670000154         0.327999965        22.238771156
     7.659999934         9.829999965        21.008771426
     9.630000147         5.299999866        23.588770893
     9.960000350         5.870000079        22.088771496
     7.710000250         6.399999624        28.628771222
     8.170000176         6.049999615        30.158768868
     8.650000542         1.380000018        29.578769998
     8.100000204         1.280000004        28.048769548
     7.519999991         5.910000116        33.468771070
     9.119999906         5.779999680        33.738772139
     1.259999982         5.239999811        34.518771489
     0.160000004         5.349999597        33.318768606
    10.290000552        10.291999825        31.698770604
     9.820000406         1.189999999        31.208769287
     1.250000056         5.099999996        31.348770464
     2.340000120         6.140000014        31.978770155
    11.620000017         0.678000013        21.408770985
    12.730000129        10.059999863        21.338771798
     6.640000233         1.669999971        39.988771028
     7.659999934         0.390000007        39.908771957
     3.879999891         1.759999897        36.578772792
     4.800000136         1.489999962        35.258774108
     2.460000016         2.060000017        32.848769861
     2.680000151         3.389999988        33.778768870
     5.430000273         6.349999893        39.048770733
     4.510000029         5.890000098        40.328772686
     7.729999906         5.339999903        25.098768771
     9.340000041         5.229999801        25.348770073
     8.290000463         2.519999970        31.988768636
     9.040000497         3.669999932        31.108770449
     9.689999900         9.049999873        45.808770706
     8.750000390         7.729999911        45.988771419
    11.689999989         8.180000012        45.668772333
    11.130000214         6.650000171        45.788770939
    12.210000450        10.309999779        31.198768000
    12.710000472         8.759999919        31.078769395
    10.530000344         0.207999992        45.678770814
    12.149999915        10.570000020        45.698770582
     5.590000265         4.100000015        34.578773596
     5.900000028         5.099999996        35.838772977
    10.930000518         7.059999605        18.888772223
    11.880000248         8.379999567        19.048773168
     8.030000233         3.750000006        39.608772639
     7.080000503         3.410000007        38.328773490
     6.490000070         4.120000034        45.898771063
     7.310000075         2.909999859        45.178771016
    10.280000333         0.600000004        40.028770563
     9.439999889         0.340000000        38.658771058
    12.780000444         9.540000011        37.908772762
    13.039999892         0.567999990        37.758773103
    11.480000073         4.719999959        28.348768866
    10.369999961         4.829999746        29.538770463
     7.390000267         8.240000068        29.398769285
     7.680000373         9.849999983        29.438768821
     2.820000094         4.689999932        25.778769283
     1.730000030         5.299999866        24.728771669
     7.589999963         0.959999944        19.408771789
     3.530000032         8.829999669        39.508773801
     4.969999955        10.419999566        29.438768821
    12.020000191         5.859999754        35.988772637
    10.040000541         9.379999863        22.588771295
     6.880000025         2.519999970        33.808772728
     7.530000210         2.230000017        26.038771871
     9.930000474         5.709999931        31.258770108
     2.560000059         1.989999952        20.708772108
     0.720000011         4.849999764        37.668772746
     0.292901995         6.321770027        17.777465546
     6.191385142         4.646839905        41.733412091
