607
Lattice="13.1280000000 0.0 0.0 0.0 10.5820000000 0.0 0.0 0.0 47.053772250" Properties=species:S:1:pos:R:3 pbc="T T T"
Zn      1.579218453000000      0.011277090000000      1.211219721000000
Zn     13.085163637999999     10.464771123000000      4.016936537000000
Zn      0.043683590000000      2.549026457000000      2.227919354000000
Zn      1.645229977000000      2.464868884000000      4.866271148000000
Zn      1.543800520000000     10.430300121000000      6.776593374000000
Zn     13.116736318999999     10.457945925000001      9.500457608000000
Zn     13.029235180000001      2.720292029000000      7.512595258000000
Zn      1.527776792000000      2.582943199000000     10.144388615000000
Zn      1.502173334000000     10.532140071000001     12.096872043999999
Zn      0.059372630000000     10.502564214000000     14.965731098999999
Zn     13.067944949999999      2.593589556000000     12.826518651000001
Zn      1.506851743000000      2.860812201000000     15.484467225000000
Zn      1.524668253000000      5.040260750000000      1.279502045000000
Zn     13.117125999000001      5.166029891000000      4.023813474000000
Zn     13.108672761999999      7.842006700000000      1.835916796000000
Zn      1.583325351000000      7.777871537000000      4.602819904000000
Zn      1.592130513000000      5.116522135000000      6.800724354000000
Zn     13.039358250999999      5.322565089000000      9.559343481000001
Zn     13.117388133000000      7.906155740000000      7.342150584000000
Zn      1.506837071000000      7.808365747000000     10.075993668000001
Zn      1.556213742000000      5.267091828000000     12.207463953000000
Zn      0.047047382000000      5.380853957000000     14.880075097000001
Zn     12.993325158999999      7.916865643000000     12.808472302000000
Zn      1.598397767000000      8.204509796000000     15.266114675000001
Zn      4.923426554000000      0.021302590000000      1.553364665000000
Zn      3.170922118000000     10.453779912000000      3.978455352000000
Zn      3.191160629000000      2.534765666000000      1.969548685000000
Zn      4.930425143000000      2.550101074000000      4.752923697000000
Zn      4.868002020000000     10.423051067999999      6.781138267000000
Zn      3.319331088000000     10.575274237000000      9.409703501999999
Zn      3.119207367000000      2.621931062000000      7.415211022000000
Zn      4.890360492000000      2.675797995000000     10.053128976000000
Zn      4.915301180000000     10.529255083000001     12.043772110000001
Zn      3.387374835000000      0.044700087000000     14.836735252000000
Zn      3.197894541000000      2.618190165000000     12.819292538999999
Zn      4.795367014000000      2.695624877000000     15.390846092000000
Zn      4.881399419000000      5.182974938000000      1.253041037000000
Zn      3.236611940000000      5.138535148000000      3.925666380000000
Zn      3.345750291000000      7.689470055000000      1.933235123000000
Zn      4.869748146000000      7.818607644000000      4.792153717000000
Zn      4.904770041000000      5.207820589000000      6.719672842000000
Zn      3.154468509000000      5.212679466000000      9.427047292999999
Zn      3.176733865000000      7.877049150000000      7.327456461000000
Zn      4.818082301000000      7.806704388000000     10.047332519999999
Zn      4.801070973000000      5.314796310000000     12.052134093999999
Zn      3.224640629000000      5.203745717000000     15.020742384000000
Zn      3.061272801000000      7.955685572000000     12.881299957000000
Zn      4.752443927000000      8.026297766000001     15.728413365000000
Zn      8.155261981000001     10.394473035000001      1.133479067000000
Zn      6.454473469000000     10.512188619000000      4.034317139000000
Zn      6.641128584000000      2.465522642000000      1.823132972000000
Zn      8.126084501999999      2.507171739000000      4.778896613000000
Zn      8.130367851000001     10.510052314999999      6.857666622000000
Zn      6.603252165000000     10.544734613999999      9.476291571000001
Zn      6.386632386000000      2.532171605000000      7.353695816000000
Zn      8.076567765000000      2.590577474000000     10.044072146000000
Zn      8.180616998000000     10.550416286999999     12.162978419000000
Zn      6.484801990000000     10.575695569000001     14.957398563000000
Zn      6.454348270000000      2.619897568000000     12.830815334000000
Zn      8.073288350000000      2.710806385000000     15.541617035000000
Zn      8.227679064000000      5.388814481000000      1.441559844000000
Zn      6.593477303000000      5.053319515000000      3.870955891000000
Zn      6.535375088000000      7.797385889000000      2.041586488000000
Zn      8.078347929000000      7.776512931000000      4.743979753000000
Zn      8.171653577000001      5.179134069000000      6.686023672000000
Zn      6.490043889000000      5.277445365000000      9.442949508000000
Zn      6.483541399000000      7.946199928000000      7.470129054000000
Zn      8.158658769000001      7.746507542000000     10.241976888000000
Zn      8.017212002000001      5.151253000000000     12.153287043000001
Zn      6.416752766000000      5.329505712000000     15.028450891000000
Zn      6.294289983000000      7.904372017000000     12.851453155000000
Zn      8.122024162000001      8.164316123000001     15.317199487000000
Zn     11.435026472000001     10.530812371000000      1.359316105000000
Zn      9.778800754000001     10.533850628000000      4.007647274000000
Zn      9.736450058999999      2.580658357000000      1.953900465000000
Zn     11.392533364000000      2.487727557000000      4.995282069000000
Zn     11.316436231999999     10.492774555000000      6.793609024000000
Zn      9.698266904000000     10.368370643000000      9.468264739000000
Zn      9.796180634000001      2.611922853000000      7.444489187000000
Zn     11.377871853000000      2.492525095000000     10.036341903000000
Zn     11.361446610000000     10.475001036000000     12.108996431000000
Zn      9.795826167000000      0.078854948000000     15.029616212000001
Zn      9.757695439000001      2.629493591000000     12.825283215000001
Zn     11.355054451000001      2.861807818000000     15.289118196000000
Zn     11.508290991999999      5.295129951000000      1.202644234000000
Zn      9.825649200000001      5.103751301000000      4.096002025000000
Zn      9.803282511999999      7.973262932000000      1.993879144000000
Zn     11.414093306000000      7.754700807000000      4.767947363000000
Zn     11.459607607000001      5.149238113000000      6.800964149000000
Zn      9.739077658999999      5.223221278000000      9.465387196000000
Zn      9.775050280000000      7.853793901000000      7.421060766000000
Zn     11.429041207999999      7.919064389000000      9.947323858000001
Zn     11.345024497000001      5.225940698000000     12.107624970000000
Zn      9.771637842000001      5.342411208000000     14.838760190000000
Zn      9.679553661000000      7.905623398000000     12.860303145000000
Zn     11.478696445000001      8.183985635000001     15.745859525000000
O       1.493807834000000      1.895445952000000      1.163406502000000
O      13.088612853000001      1.849338811000000      4.049024233000000
O      13.127215422000001      4.492510708000000      2.340280980000000
O       1.611108825000000      4.468183207000000      4.926680281000000
O       1.477061085000000      1.855372277000000      6.761901355000000
O       0.008741690000000      1.864608149000000      9.327880018000000
O      13.066681229000000      4.621834363000000      7.695732256000000
O       1.526509158000000      4.571978756000000     10.337489739000000
O       1.494332102000000      1.890686889000000     12.054595150999999
O      13.010208941000000      1.954384479000000     14.858629543999999
O      13.031741495000000      4.609626146000000     12.982043430999999
O       1.622177240000000      4.686335669000000     15.869694865000000
O       1.612562788000000      7.100454403000000      1.123123784000000
O      13.083510237000000      7.130649644000000      4.011139030000000
O       0.046123882000000      9.867161687999999      2.181956661000000
O       1.628656158000000      9.742160469000000      4.936156051000000
O       1.602869892000000      7.123415729000000      6.601972616000000
O      13.016500159000000      7.225186929000000      9.307810834000000
O      13.041046080999999      9.870072537000000      7.615775950000000
O       1.629476697000000      9.801022045000000     10.273307335000000
O       1.499579087000000      7.189012308000000     12.059294297999999
O      13.069651561000001      7.342283130000000     14.789696108999999
O      13.005611031000001      9.885460610999999     12.935799399000000
O       1.792421588000000     10.048700221000001     15.637441199000000
O       4.840533498000000      1.877434645000000      1.556174897000000
O       3.244968149000000      1.827286376000000      3.974669110000000
O       3.259608533000000      4.418088235000000      2.023547852000000
O       4.939546626000000      4.522103280000000      4.841135762000000
O       4.803152004000000      1.800074361000000      6.543529874000000
O       3.163739448000000      2.014642505000000      9.278234679000001
O       3.345686518000000      4.546465471000000      7.569036200000000
O       4.784306912000000      4.602425029000000     10.169675801000000
O       4.855311600000000      1.958860026000000     11.952721414999999
O       3.192354709000000      2.004200823000000     14.649243375999999
O       3.227062630000000      4.654717172000000     12.989001700999999
O       4.813417097000000      4.596958438000000     15.773914172000000
O       4.935599748000000      7.079860231000000      1.340722679000000
O       3.195529074000000      7.142032543000000      3.905979677000000
O       3.162040467000000      9.733494151000000      1.943031322000000
O       4.841179052000000      9.825706543000001      4.716900764000000
O       4.867073596000000      7.205381177000000      6.680054732000000
O       3.109381252000000      7.167333900000000      9.221335181000001
O       3.213603415000000      9.793996272999999      7.616789120000000
O       4.922570902000000      9.792750569000001     10.136893259000001
O       4.656161297000000      7.245589357000000     11.944844630000000
O       3.237102366000000      7.181407520000000     14.758118854999999
O       3.210026263000000      9.901517897000000     12.909135844000000
O       4.906680099000000      9.900844900999999     15.691925214999999
O       8.318017510000001      1.783359690000000      1.125797817000000
O       6.528282992000000      1.913480912000000      3.992137707000000
O       6.644217071000000      4.469350069000000      1.996461676000000
O       8.127320835000001      4.475508579000000      4.850406445000000
O       8.118807347000001      1.857173975000000      6.656833853000000
O       6.476358926000000      1.890479850000000      9.271976161000000
O       6.567169996000000      4.555563212000000      7.548509863000000
O       8.121840277000000      4.513215574000000     10.206819531000001
O       8.129335747000001      1.985323042000000     11.923759472000000
O       6.402336956000000      1.946700533000000     14.660344074999999
O       6.374724065000000      4.594477752000000     12.911155172999999
O       8.055383419000000      4.621029228000000     15.463543332000000
O       8.134171534000000      7.324419416000000      1.269086112000000
O       6.486857200000000      7.158974751000000      3.907656842000000
O       6.587838681000000      9.803179794000000      2.132878206000000
O       8.146549739999999      9.777902405000001      4.910785779000000
O       8.147698435000001      7.224821102000000      6.642079431000000
O       6.541429994000000      7.247688448000000      9.300828724000000
O       6.478248638000000      9.872184873000000      7.555299155000000
O       8.181311065999999      9.701596553000000     10.300491848000000
O       8.036326663000001      7.101119830000000     12.163415940000000
O       6.387135527000000      7.341329457000000     14.879889992000001
O       6.525949216000000      9.843609993999999     12.821268397000001
O       8.144433887000000     10.049904928000000     15.467698382000000
O      11.493638088000001      2.033106839000000      1.282448653000000
O       9.834107915000001      1.980901580000000      3.946633394000000
O       9.752518487000000      4.509744317000000      2.144866042000000
O      11.399715838000001      4.515543937000000      4.953420962000000
O      11.454193560000000      1.869350025000000      6.847297929000000
O       9.758995937000000      1.908763004000000      9.258140954000000
O       9.782234319000001      4.559453909000000      7.568721381000000
O      11.443989111000000      4.500078913000000     10.264818440999999
O      11.392250885999999      1.913912809000000     12.129801127000000
O       9.699470374000001      2.092022028000000     14.837182588999999
O       9.732352160000000      4.575739836000000     12.863269034000000
O      11.434468557000001      4.739000576000000     15.523050427999999
O      11.412083088999999      7.126551750000000      1.593006789000000
O       9.809112842999999      7.147017252000000      3.968787464000000
O       9.823769660000000      9.937179098000000      2.119467724000000
O      11.446880410000000      9.775841158000000      4.983454272000000
O      11.397165704000001      7.072146956000000      6.692278683000000
O       9.761686919000001      7.158112535000000      9.319966072000000
O       9.765216731000001      9.817980022000000      7.622898291000000
O      11.428256371000000      9.857599094999999     10.197623171000000
O      11.350586434000000      7.208567657000000     11.987605320000000
O       9.859928513000000      7.402566386000000     15.051567999000000
O       9.760007696000001      9.798912231999999     12.956282965000000
O      11.483284183000000     10.064876716000001     15.702610829999999
O       8.719548235000000      2.082626106000000     42.061960274000000
O      11.575650843000000      8.609965405000001     30.598704532999999
O       8.382608913000000      7.736625165000000     27.202462699000002
O      11.993572381000000      9.129348395999999     26.343835670000001
O       3.053606553000000      1.888141868000000     41.855021139000002
O       9.141297713000000      1.523600390000000     45.674382477999998
O       3.139426708000000      2.311707494000000     37.930665920000003
O       0.205211371000000      4.467411816000000     18.951332279999999
O      10.872491431000000      4.645729494000000     35.345403367999999
O       2.792990894000000      6.119179407000000     19.234544549999999
O       4.029196829000000     10.014622168000001     26.290954496000001
O       0.755127053000000      3.148970719000000     23.490226753999998
O       1.641110755000000      5.789852413000000     23.267452716000001
O      10.063859437000000      8.013796572000000     20.632346397999999
O       4.330434271000000     10.554713494000000     31.844666877000002
O       9.267263701999999      8.253708491999999     33.293709192999998
O      10.176818099000000      4.484660563000000     43.710658117999998
O       5.431279644000000      0.433361159000000     19.015346405999999
O       9.539890970000000      4.323526036000000     40.844672400000000
O       8.554801269000000      2.910674431000000     35.863324751000000
O       2.021300439000000      5.408251882000000     41.667411467999997
O       2.056769919000000      3.434886970000000     35.171850470000003
O       2.713418334000000      7.459004043000000     27.227791251999999
O       5.054167296000000      5.758550230000000     27.172910382000001
O       6.671525964000000      7.764139146000000     38.199438587000003
O       4.863148236000000      4.320990475000000     31.652782960000000
O       6.114809126000000      1.805028637000000     42.776037015000000
O       9.302769176000000      2.993150461000000     19.921431869999999
O       3.627555773000000      6.745776223000000     45.109848253999999
O      12.376340565000000      6.656155527000000     25.334266616000001
O       0.770474857000000      0.421388325000000     22.054573710000000
O       2.184221465000000     10.507897720000001     29.616441293000001
O      12.764284919000000      5.098774160000000     21.486822583999999
O      10.613995146000001      4.383210408000000     18.104250484000001
O       1.097796108000000      9.015998138000000     24.569827253000000
O       6.360166234000000      2.181868685000000     23.203188978000000
O      11.754531138999999      4.087789906000000     46.812010634000004
O       4.956343552000000      1.460601183000000     28.388181732000000
O       8.226548365999999      7.925009710000000     23.566798581000000
O       2.305750542000000      0.321327701000000     39.564050520999999
O      12.012206593000000      4.352338702000000     32.517627838999999
O       4.821804214000000      3.746499420000000     39.463580499000003
O       0.042407242000000      5.492029436000000     27.953978357000000
O       2.881000847000000      1.947896725000000     17.659403563000001
O       6.603397708000000      8.773443434000001     32.705921838000002
O       4.415625891000000      7.544495308000000     29.782542307000000
O      12.554655904000001      7.674681811000000     40.407196028999998
O      11.334281694000000      1.761927900000000     34.685556824999999
O       5.121099517000000      6.722339322000000     33.245786594000002
O       8.559137827000001      6.714457641000000     42.381218965000002
O       7.401634325000000      4.884264201000000     19.626420548999999
O       1.759366481000000      7.504740627000000     37.909835983000001
O       0.294126249000000      9.036581588000001     35.970839988000002
O      12.222190076000000      2.027080311000000     30.484317968999999
O       5.549668002000000      7.192491450000000     41.763441772000000
O       7.056381049000000      9.536903727000000     44.084985590000002
O      11.015660457999999      8.002540452000000     35.518328031000003
O       3.618732418000000      1.494727015000000     23.827493931999999
O       4.518284639000000      7.054017702000000     36.156113406999999
O       8.677579395000000      4.819259883000000     46.019309081999999
O       7.124991319000000      7.599961000000000     19.436875689000001
O      12.307642656000001      6.227894384000000     42.881260873999999
O      11.768454762999999      9.304898718000000     42.952717067999998
O       4.299413246000000      5.999972763000000     21.597030259000000
O       4.387916363000000      9.555147144999999     44.652742324999998
O       1.248908189000000      7.750024528000000     45.827596247000002
O      10.081717420000000      9.387138537000000     28.445152046000000
O      11.352451889999999      6.487350930000000     38.427451662000003
O       1.426509799000000      3.803000781000000     46.917116698999997
O       9.449881169999999      0.612151889000000     36.783409491999997
O       6.684433134000000      4.981173370000000     22.421452101000000
O       2.243724923000000     10.439814148000000     34.262762658000000
O       3.903812621000000      9.408169809000000     22.856552956000002
O       0.696395472000000      8.272161945000001     19.689861130000001
O       2.078727756000000      9.090744179000000     43.526725309000000
O       6.773817725000000      4.719011596000000     25.384786297000002
O       0.641397786000000      1.571437957000000     28.250222309000002
O       9.945902231000000      3.031287303000000     22.533223354000000
O       6.413483915000000      8.739674441000000     22.058790461000001
O       4.560665460000000      4.739739799000000     46.256678379999997
O       1.364981649000000      1.435518849000000     31.915382650000002
O       7.835655590000000     10.296401734000000     34.622217210999999
O      11.433776054000001      1.227811066000000     40.239294446999999
O       0.776529078000000      7.995237156000000     29.567809124000000
O      12.718754968000001      1.816011491000000     36.954533585999997
O       2.134984469000000      7.862563028000000     41.016646295000001
O      10.965769692000000     10.561171603000000     24.186087466000000
O       3.030903003000000      1.976564953000000     26.700157459000000
O      10.090414794000001      2.747092016000000     26.073621426999999
O       4.575339100000000      9.594746033000000     41.504361885000002
O       5.932492525000000      3.964672065000000     29.175798501999999
O       7.477069471000000      2.729514340000000     17.692350875999999
O      12.614951437000000      8.204874992000001     22.405012802000002
O       4.968146628000000      9.757079275000001     37.938420704000002
O       4.998576483000000      6.390644543000000     17.384870200000002
O      12.563747653000000      1.901349644000000     25.616902536000001
O       3.539844536000000      8.893451113999999     18.612065405999999
O       2.556547127000000      7.710056028000000     34.014514224999999
O       9.332404412000001      8.189611172999999     37.812681025000003
O       7.975745520000000     10.213454860000001     18.277594437000001
O       5.183447521000000      4.151865465000000     41.967326671999999
O       7.484785603000000      5.214153497000000     37.028275549000000
O       6.786612998000000      9.261025329000001     25.504683945000000
O       9.397490348000000      9.267718703000000     41.840647443999998
O       3.487312084000000      1.621759364000000     44.459105518999998
O       0.695299889000000     10.134429903999999     46.497842333999998
O      12.041924773000000      3.892033630000000     40.660484369999999
O       8.335132127000000      0.043336420000000     21.964656083000001
O      10.285430812000000      5.777920143000000     22.781216566000001
O       7.208250580000000      7.217876695000000     29.496215502999998
O       8.495413424000001      1.056033335000000     29.408599069000001
O       8.489702031000000      6.108231086000000     34.864859201000002
O       0.619631072000000      5.663494479000000     34.253709333000003
O      10.163546289999999      1.260826644000000     32.240404841999997
O       2.380498857000000      6.730658734000000     31.494888274000001
O      11.495766460000000      1.021084314000000     21.141342066000000
O       6.211839425000000      0.894624516000000     39.502629270000000
O       4.432679865000000      0.805351830000000     35.663301818000001
O       2.456303143000000      3.724499652000000     32.350702265000002
O       4.235234998000000      6.309340737000000     39.280604066000002
O       9.181999702000001      5.571413912000000     25.304700276999998
O       7.985342758000000      3.278785088000000     31.335100467000000
O       8.259034995000000      8.861220487000001     46.346594605000000
O      10.732664418000001      7.594233914000000     45.065650195000003
O      12.806908703000000     10.009306951999999     32.888673900999997
O      10.862677443999999     10.513919359999999     46.419952334000001
O       4.335341656000000      4.523433187000000     35.740930988000002
O      11.845628601000000      7.299504700000000     17.856729851000001
O       7.496032328000000      3.369403924000000     39.012316599000002
O       6.469572783000000      3.294799168000000     45.150924768000003
O       8.766532833999999      0.038968630000000     39.396420986999999
O      12.808095740000001     10.115634591999999     38.694045135000003
O      11.018953958000001      3.722245085000000     28.751896508000002
O       6.742460229000000      9.861484430999999     30.124260421999999
O       2.206303132000000      5.052061827000000     25.877746531000000
H       9.249804007000000      2.524354416000000     42.788845729999998
H       8.868070274999999      2.861083102000000     41.456436480999997
H      11.071407379000000      9.017342868000000     29.859571287000001
H      10.917104304000000      7.959546940000000     30.959524938000001
H       8.815619984000000      7.160454459000000     26.558350092000001
H       7.721268885000000      8.243652031000000     26.659905504000001
H      11.546806704000000      9.034095225000000     27.200370450000001
H      12.231403111000001      8.232899869000001     26.082955213999998
H       2.718300874000000      1.592657662000000     40.942671550000000
H       2.839554123000000      2.814591211000000     41.828068709000000
H       8.468721132000001      1.727989712000000     44.966832095000001
H       8.690122706000000      1.687830414000000     46.590027499000001
H       4.025693622000000      2.625385132000000     38.137403122000002
H       2.500581697000000      3.071252649000000     38.164324702000002
H       1.172951220000000      4.762376296000000     18.838737870999999
H      12.886041112999999      4.530497119000000     18.093368545000001
H      11.237142628999999      3.911844428000000     34.772881578000003
H      10.450570588000000      4.118637328000000     36.051514978999997
H       3.219538208000000      5.661754908000000     19.946207911999998
H       2.479948224000000      7.004023017000000     19.454361113000001
H       3.492637709000000      0.269106122000000     26.459806845999999
H       3.539979907000000      9.184033237000000     26.500813244000000
H       0.287152455000000      3.692976711000000     22.874980734000001
H       1.633707228000000      3.583238680000000     23.639758054000001
H       2.484587997000000      5.952159164000000     22.866026974000000
H       1.060093109000000      5.415555178000000     22.561520601000002
H       9.161676877000000      7.924225705000000     20.332504113999999
H      10.604020748000000      7.944920164000000     19.853966655000001
H       3.468657136000000     10.190980463000001     32.198127950000000
H       4.680527247000000      0.691051367000000     32.449183810000001
H       8.325573232000000      8.528529144000000     33.190409305000003
H       9.353649010000000      7.559453220000000     32.623737959000003
H       9.711249974999999      4.765274844000000     44.511664160000002
H      11.108176574000000      4.787991444000000     43.820776045999999
H       4.762430844000000      1.074349367000000     19.327000361000000
H       5.697205670000000      0.587696191000000     18.069748007000001
H      10.480736351999999      4.380998731000000     40.714164861000000
H       9.405300379000000      5.153564649000000     41.389888376999998
H       7.893081734000000      2.720417230000000     35.136346742999997
H       8.012348828000000      3.424032944000000     36.452612580000000
H       1.247672735000000      5.049658091000000     41.237513190000001
H       2.236420577000000      6.294670440000000     41.282350704000002
H       2.887119330000000      3.920939330000000     35.479167074999999
H       1.556346276000000      3.175257287000000     35.890796037000001
H       2.781502770000000      6.659714772000000     26.656929799000000
H       1.828451526000000      7.773648758000000     27.397484988999999
H       5.588992418000000      5.327687299000000     27.899349903000001
H       4.554634420000000      6.467299822000000     27.619782240999999
H       5.979764299000000      8.440679555999999     38.032428875000001
H       6.288624366000000      7.075569332000000     38.676064695000001
H       3.922777826000000      4.079985175000000     31.637926870000001
H       5.264186774000000      3.720823720000000     32.337879526999998
H       7.039734361000000      1.850541152000000     42.382523114999998
H       5.891692334000000      0.864693081000000     42.891531405000002
H       8.901112470999999      3.858962863000000     19.681227097000001
H       9.287117032999999      2.981658445000000     20.977183254000000
H       2.735185439000000      7.119324773000000     45.400132382000002
H       4.193947316000000      7.489660983000000     45.274575003000002
H      12.586907003000000      6.666752528000000     24.419000218000001
H      12.797005512000000      5.896436762000000     25.789731840999998
H       1.494631111000000      1.006656141000000     21.710649757999999
H      13.063709333000000      0.744780169000000     21.667664697999999
H       1.664185205000000      9.660856663000001     29.672250493000000
H       1.748595313000000      0.406571540000000     28.887960006000000
H      12.735170039000000      4.865171496000000     20.512328149999998
H      11.872271595999999      5.456693064000000     21.650162446000000
H      10.515719904999999      4.354094041000000     17.131231281000002
H      10.759480343000000      3.525240897000000     18.521100252000000
H       1.603762615000000      9.541703630000001     23.935076479999999
H       0.322611592000000      9.542989070999999     24.900354921999998
H       6.649886992000000      2.020501258000000     24.097071525000000
H       5.480197776000000      1.886633620000000     23.292130597000000
H      11.610535020000000      2.808049845000000      0.527497813000000
H      10.984630042999999      4.121506232000000     46.178311594000000
H       5.266028364000000      2.325095819000000     28.706913153999999
H       5.788210015000000      1.301539886000000     27.837261151000000
H       7.678891585000000      8.463403724999999     24.244892004000000
H       8.596553359000000      7.229976741000000     24.096645222999999
H       2.687091073000000      0.983817494000000     38.948553486999998
H       1.429542338000000      0.069564768000000     39.204093940000000
H      12.340036951000000      3.827385048000000     31.788896941000001
H      11.276792169000000      4.821807427000000     32.152081643000002
H       4.597507036000000      3.927513180000000     40.414381474000002
H       5.783306934000000      3.936197789000000     39.527660533000002
H       0.122514622000000      6.337148640000000     28.390882584000000
H       0.777083521000000      5.370431670000000     27.260437068000002
H       2.212674359000000      1.702776500000000     18.400390665000000
H       3.547349005000000      2.568651660000000     18.065407852000000
H       6.067356206000000      7.916350331000000     32.822352971999997
H       6.388745500000000      9.221811190000000     31.834575842000000
H       5.309934648000000      7.183167274000000     29.923721438000001
H       3.869448799000000      7.321348991000000     30.490190851000001
H      12.034056838000000      7.191233761000000     39.703294462000002
H      11.952519054000000      8.276221994000000     40.877220053999999
H      11.131629358000000      1.737779371000000     33.735041920999997
H      11.027159146000001      0.968157887000000     35.142185969000003
H       4.776131067000000      5.934813914000000     32.705187025999997
H       4.338467312000000      7.108554950000000     33.649969280000001
H       7.630552496000000      6.709899309000000     41.986490664000002
H       8.968501273999999      7.621017502000000     42.182985381000002
H       7.326792306000000      4.954447494000000     20.571746900000001
H       7.427237391000000      5.814713516000000     19.343563065000001
H       0.982756219000000      7.871126536000000     37.440675782000000
H       1.660711146000000      6.523086559000000     37.966674480000002
H       0.889382299000000      9.285065213999999     35.232968821999997
H      12.593141099000000      8.850827843999999     35.465373937000003
H      11.417870384000000      2.418053110000000     30.018108231999999
H      11.844192732000000      1.278791434000000     31.015199516999999
H       5.466073444000000      8.193024718000000     41.800115028000000
H       5.013694185000000      6.968194039000000     42.592255655000002
H       7.540462881000000      9.479382465000000     43.234918270999998
H       7.600577660000000      9.311931427999999     44.894885092000003
H      10.607893290000000      8.322799350000000     34.675922944000000
H      10.477968685000000      8.376519795000000     36.258280227000000
H       3.257002842000000      1.905498786000000     24.619603709000000
H       3.149546062000000      1.941707624000000     23.126922855000000
H       4.419469090000000      7.121618130000000     37.162510431999998
H       3.589906668000000      7.272010272000000     35.888114817000002
H       8.368460714999999      4.018541048000000     45.526118867999998
H       8.256293149999999      5.654505856000000     45.839137272000002
H       6.675243573000000      8.002117858000000     20.198022423000001
H       6.349509114000000      7.150941063000000     19.025894595000000
H      12.209340029000000      6.793777150000000     42.134075555000003
H       0.109456310000000      6.002861535000000     42.715129009000002
H      12.604479376000000      9.864278593000000     43.132585978000002
H      11.581073497000000      8.601743756999999     43.634089095999997
H       5.177509206000000      5.612788323000000     21.858132280000000
H       4.646813283000000      6.809216314000000     21.197368624999999
H       5.362027732000000      9.405383847000000     44.387270700000002
H       4.211959448000000     10.499890521999999     44.867425025000003
H       0.421020393000000      7.317039800000000     45.476353631000002
H       1.551525944000000      7.264413053000000     47.013564891999998
H       9.512397409000000     10.041776627999999     28.856576271000002
H       9.480250380999999      8.890090550000000     27.764856993999999
H      10.427660852000001      6.764157141000000     38.218411863999997
H      11.234219247000000      5.558660423000000     38.580757984000002
H       0.492589208000000      4.014227127000000     46.570585850000001
H       1.390645162000000      2.848138500000000      0.483214125000000
H       9.031357896999999      1.532867957000000     36.569237233000003
H       8.963247638000000      0.005043820000000     36.180833358000001
H       6.358772619000000      4.085007097000000     22.612922336000000
H       6.958241179000000      5.242025420000000     23.293807762000000
H       3.078588322000000      0.217012721000000     34.638054918999998
H       2.006636972000000      0.579861342000000     33.659549874000000
H       3.665849650000000      9.925019132999999     23.680066101000001
H       3.730396450000000     10.150964656999999     22.250452812999999
H       0.463232783000000      8.985254788000001     20.334695926999999
H       1.456298403000000      8.495154992000000     19.142498214000000
H       2.824322372000000      9.687193058000000     43.923324293999997
H       1.982319341000000      8.454358335000000     44.312659304999997
H       6.749486205000000      3.794435381000000     25.437838551999999
H       6.055553521000000      5.082468680000000     25.885229267000000
H       0.085137903000000      1.894031053000000     29.006730195999999
H       0.087278954000000      1.441780957000000     27.483286832000001
H       9.962817313000000      3.980197640000000     22.365982259999999
H       9.998631088000000      2.946802378000000     23.533109446000001
H       6.867907428000000      8.015835743000000     22.611085308000000
H       5.527401473000000      9.013513036999999     22.449966707000002
H       4.194686768000000      5.617438742000000     45.946018664000000
H       3.961455905000000      4.033366190000000     45.909839023000004
H       1.783466384000000      0.929284030000000     31.183600322000000
H       0.610808597000000      0.897501778000000     32.276416206000000
H       7.215855598000000      9.629810558999999     34.349506853999998
H       7.495677078000000      0.421724349000000     34.051602565000003
H      11.399630546999999      0.767728013000000     41.089190682999998
H      11.969819902999999      0.585872732000000     39.715413239999997
H       1.315278582000000      7.430157948000000     30.194224556000002
H      13.064505125000000      8.194793302000001     30.091283660999999
H      13.086082280999999      2.607881410000000     37.407090416999999
H      12.364236231000000      2.195074096000000     36.150933268000003
H       2.250165597000000      8.222537502000000     41.919067517999999
H       1.088961798000000      7.807941892000000     41.033488059000000
H      10.881029959999999     10.069687973000001     25.050646274000002
H      11.520858560000001      0.649911945000000     24.586455865000001
H       2.214843030000000      2.231797300000000     27.167180537000000
H       3.745319704000000      1.768558358000000     27.340904516999998
H      10.386322698000001      2.964877704000000     27.004335690000001
H       9.115687604000000      2.612001695000000     26.098094571000001
H       4.051658198000000      9.735345363000000     42.281674467999999
H       4.686191299000000     10.453378132999999     41.054203006999998
H       6.820822669000000      3.899351433000000     29.621122208999999
H       5.410375820000000      4.172583261000000     29.943168696000001
H       8.283044910999999      2.456307900000000     18.164314297000001
H       7.321786719000000      3.662582788000000     17.894987717999999
H       0.102182872000000      8.678318933000000     23.038950234000001
H       0.005100980000000      7.395811831000000     22.246868503999998
H       4.873776794000000     10.209076918999999     37.095367748999998
H       5.471298128000000     10.369499030000000     38.586810360999998
H       4.955048532000000      5.583743546000000     16.753103545999998
H       4.300825640000000      6.329823899000000     18.103174910000000
H      13.103536499000001      2.451382006000000     25.026540535999999
H      11.736328079000000      2.324934508000000     25.872476643999999
H       3.999925842000000      9.243085925999999     19.319289049999998
H       3.381558980000000      9.492833548000000     17.882937653999999
H       1.768083808000000      7.213405405000000     34.230139278999999
H       2.482864954000000      8.689801488000001     34.000830467999997
H       9.587704227000000      8.927366437000000     38.388273878000000
H       8.377179216000000      8.013535447000001     38.051691028000000
H       8.137317143000001     10.221947725000000     17.266522106000000
H       7.541415954000000      9.356065311000000     18.449840381000001
H       5.909530754000000      4.517722816000000     42.491421031000002
H       5.310758610000000      3.208486370000000     42.196904727000003
H       7.924011208000000      5.732710223000000     36.285633719000003
H       6.622333961000000      5.631736274000000     37.150329953000004
H       5.817719270000000      9.173870813000001     25.663860344000000
H       6.924187223000000     10.224457425000001     25.649865274000000
H       9.829835520000000      9.826079937999999     42.484162666000003
H       8.981140050000000      9.818695908000000     41.143791090999997
H       2.682997869000000      2.061968860000000     44.844780495999998
H       3.495545050000000      1.634723834000000     43.434094209000001
H       0.861635602000000      9.125976480000000     46.282789424000001
H       0.870559898000000      0.169292215000000     45.737705263999999
H      12.119636964000000      2.955539338000000     40.534186570999999
H      12.686828602000000      4.300473568000000     40.014158916000000
H       8.109717162999999      0.770373242000000     22.620629440999998
H       7.506606113000000     10.084215723000000     22.026893479999998
H      10.249023126999999      5.811608401000000     23.787270024000001
H       9.956407156999999      6.620424314000000     22.524433664000000
H       7.634411736000000      7.213213030000000     28.578472623000000
H       7.949593147000000      6.870866376000000     30.116469177999999
H       8.411118928000000      1.792999549000000     30.011514562999999
H       8.510462266999999      1.544646958000000     28.599754104999999
H       8.951004019999999      6.963543620000000     34.716160875000000
H       9.182585787000001      5.480278188000000     35.185234133000002
H       1.184482185000000      4.992760627000000     34.540950444000003
H       0.151553002000000      5.207665743000000     33.528686147999998
H       9.663950814000000      0.417302612000000     32.373220586000002
H       9.586674470000000      2.067674659000000     32.378137090999999
H       2.321234450000000      5.728667203000000     31.694420397999998
H       2.269607143000000      7.202133516000000     32.394314158999997
H      11.204761636000001      1.717715017000000     21.751525741999998
H      11.296365369000000      1.270933563000000     20.224195169000001
H       6.273918644000000      1.868640289000000     39.565640743000003
H       7.146419802000000      0.509701622000000     39.483824270000000
H       4.052918007000000      1.566417138000000     36.129766775000000
H       5.191151133000000      1.197886884000000     35.132869010000000
H       1.923852291000000      2.848804558000000     32.218489515000002
H       2.556989039000000      3.762510977000000     33.331002269999999
H       4.353470380000000      5.295305926000000     39.262315117000000
H       4.564228528000000      6.528462956000000     40.187181740000000
H       8.242534632000000      5.363007273000000     25.439406337000001
H       9.684903544000001      4.850577834000000     25.714935341000000
H       7.540741448000000      3.087535739000000     32.192187758000003
H       8.346244264999999      4.162357764000000     31.322151520999999
H       9.224815196000000      8.703359796000001     46.182061376000000
H       8.114926980000000      8.124295270999999     46.995545186999998
H      11.369521904999999      7.549799170000000     45.790432183000000
H      10.564629430000000      6.760249729000000     44.590230075000001
H      12.066842378000000     10.191424501000000     33.442996489999999
H      12.415702148999999      9.488717362999999     32.128601336999999
H      10.240814809000000      0.566673907000000     45.939495110000003
H      11.705779678000001     10.501860312000000     45.898687840000001
H       4.804349996000000      4.154374534000000     34.993798955999999
H       4.617891678000000      5.499733881000000     35.887329522999998
H      11.719861364000000      6.334966923000000     17.930950000999999
H      12.610994386000000      7.540999136000000     18.468704278000001
H       8.231263650000001      3.540519539000000     39.617425308999998
H       7.597442223000000      4.019735032000000     38.298256686000002
H       5.849624509000000      3.961645477000000     45.453930667000002
H       6.181650969000000      2.854731272000000     44.340172660000000
H       9.525271714000001      0.608100157000000     39.579327305000000
H       8.846974350000000      0.047499201000000     38.380645301999998
H      12.701846145999999      9.176750124000000     38.956437283000000
H      12.819437147000000     10.384581196999999     37.741987688000002
H      11.752190712000001      4.314138156000000     28.472713079999998
H      10.262333278000000      4.394363088000000     28.800680127000000
H       7.137778767000000      9.029412639000000     29.752232742000000
H       7.445604774000000     10.513445677000000     29.942203906000000
H       2.683923359000000      4.245170291000000     26.190843465000000
H       2.243508369000000      5.150999444000000     24.886612267000000
Na      7.657952941000000      1.145753687000000     20.009898104000001
Na      3.126672320000000      8.753920881999999     39.205844024999998
Na      4.602005961000000     10.171507739999999     29.303913696999999
Na     12.457860352000001      6.230454543000000     36.182420774000001
Na     10.457275743000000      9.522425804999999     22.283022903999999
Cl      6.362014866000000      2.447780817000000     33.774505775999998
Cl      7.452960960000000      1.613886986000000     26.144138072000001
Cl      9.813812477000001      5.944569513000000     30.963510308000000
Cl      3.253480268000000      2.101489380000000     20.789248247000000
Cl      0.792605380000000      4.313906360000000     38.023549437000000
